!-Generator IDFEditor 1.51
!-Option SortedOrder

!-NOTE: All comments with '!-' are ignored by the IDFEditor and are generated automatically.
!-      Use '!' comments if they need to be retained when using the IDFEditor.


!-   ===========  ALL OBJECTS IN CLASS: VERSION ===========

Version,
    ;                        !- Version Identifier


!-   ===========  ALL OBJECTS IN CLASS: SIMULATIONCONTROL ===========

SimulationControl,
    No,                      !- Do Zone Sizing Calculation
    No,                      !- Do System Sizing Calculation
    No,                      !- Do Plant Sizing Calculation
    Yes,                     !- Run Simulation for Sizing Periods
    Yes,                     !- Run Simulation for Weather File Run Periods
    No,                      !- Do HVAC Sizing Simulation for Sizing Periods
    1;                       !- Maximum Number of HVAC Sizing Simulation Passes


!-   ===========  ALL OBJECTS IN CLASS: PERFORMANCEPRECISIONTRADEOFFS ===========

PerformancePrecisionTradeoffs,
    No,                      !- Use Coil Direct Solutions
    ScriptF,                 !- Zone Radiant Exchange Algorithm
    Normal,                  !- Override Mode
    0.3,                     !- MaxZoneTempDiff
    0.002,                   !- MaxAllowedDelTemp
    No;                      !- Use Representative Surfaces for Calculations


!-   ===========  ALL OBJECTS IN CLASS: BUILDING ===========

Building,
    NONE,                    !- Name
    ,                        !- North Axis {deg}
    Suburbs,                 !- Terrain
    0.04,                    !- Loads Convergence Tolerance Value {W}
    0.4,                     !- Temperature Convergence Tolerance Value {deltaC}
    FullExterior,            !- Solar Distribution
    25,                      !- Maximum Number of Warmup Days
    1;                       !- Minimum Number of Warmup Days


!-   ===========  ALL OBJECTS IN CLASS: SHADOWCALCULATION ===========

ShadowCalculation,
    PolygonClipping,         !- Shading Calculation Method
    Periodic,                !- Shading Calculation Update Frequency Method
    20,                      !- Shading Calculation Update Frequency
    15000,                   !- Maximum Figures in Shadow Overlap Calculations
    SutherlandHodgman,       !- Polygon Clipping Algorithm
    512,                     !- Pixel Counting Resolution
    SimpleSkyDiffuseModeling,!- Sky Diffuse Modeling Algorithm
    No,                      !- Output External Shading Calculation Results
    No,                      !- Disable Self-Shading Within Shading Zone Groups
    No;                      !- Disable Self-Shading From Shading Zone Groups to Other Zones


!-   ===========  ALL OBJECTS IN CLASS: SURFACECONVECTIONALGORITHM:INSIDE ===========

SurfaceConvectionAlgorithm:Inside,
    TARP;                    !- Algorithm


!-   ===========  ALL OBJECTS IN CLASS: SURFACECONVECTIONALGORITHM:OUTSIDE ===========

SurfaceConvectionAlgorithm:Outside,
    DOE-2;                   !- Algorithm


!-   ===========  ALL OBJECTS IN CLASS: HEATBALANCEALGORITHM ===========

HeatBalanceAlgorithm,
    ConductionTransferFunction,  !- Algorithm
    200,                     !- Surface Temperature Upper Limit {C}
    0.1,                     !- Minimum Surface Convection Heat Transfer Coefficient Value {W/m2-K}
    1000;                    !- Maximum Surface Convection Heat Transfer Coefficient Value {W/m2-K}


!-   ===========  ALL OBJECTS IN CLASS: HEATBALANCESETTINGS:CONDUCTIONFINITEDIFFERENCE ===========

HeatBalanceSettings:ConductionFiniteDifference,
    FullyImplicitFirstOrder, !- Difference Scheme
    3,                       !- Space Discretization Constant
    1,                       !- Relaxation Factor
    0.002;                   !- Inside Face Surface Temperature Convergence Criteria


!-   ===========  ALL OBJECTS IN CLASS: ZONEAIRHEATBALANCEALGORITHM ===========

ZoneAirHeatBalanceAlgorithm,
    ThirdOrderBackwardDifference;  !- Algorithm


!-   ===========  ALL OBJECTS IN CLASS: ZONEAIRCONTAMINANTBALANCE ===========

ZoneAirContaminantBalance,
    No,                      !- Carbon Dioxide Concentration
    ,                        !- Outdoor Carbon Dioxide Schedule Name
    No;                      !- Generic Contaminant Concentration


!-   ===========  ALL OBJECTS IN CLASS: ZONEAIRMASSFLOWCONSERVATION ===========

ZoneAirMassFlowConservation,
    None,                    !- Adjust Zone Mixing and Return For Air Mass Flow Balance
    AddInfiltrationFlow,     !- Infiltration Balancing Method
    MixingSourceZonesOnly;   !- Infiltration Balancing Zones


!-   ===========  ALL OBJECTS IN CLASS: ZONECAPACITANCEMULTIPLIER:RESEARCHSPECIAL ===========

ZoneCapacitanceMultiplier:ResearchSpecial,
    ,                        !- Name
    ,                        !- Zone or ZoneList Name
    1,                       !- Temperature Capacity Multiplier
    1,                       !- Humidity Capacity Multiplier
    1,                       !- Carbon Dioxide Capacity Multiplier
    1;                       !- Generic Contaminant Capacity Multiplier


!-   ===========  ALL OBJECTS IN CLASS: TIMESTEP ===========

Timestep,
    6;                       !- Number of Timesteps per Hour


!-   ===========  ALL OBJECTS IN CLASS: CONVERGENCELIMITS ===========

ConvergenceLimits,
    ,                        !- Minimum System Timestep {minutes}
    20,                      !- Maximum HVAC Iterations
    2,                       !- Minimum Plant Iterations
    8;                       !- Maximum Plant Iterations


!-   ===========  ALL OBJECTS IN CLASS: HVACSYSTEMROOTFINDINGALGORITHM ===========

HVACSystemRootFindingAlgorithm,
    RegulaFalsi,             !- Algorithm
    5;                       !- Number of Iterations Before Algorithm Switch


!-   ===========  ALL OBJECTS IN CLASS: COMPLIANCE:BUILDING ===========

Compliance:Building,
    ;                        !- Building Rotation for Appendix G {deg}


!-   ===========  ALL OBJECTS IN CLASS: SITE:LOCATION ===========

Site:Location,
    ,                        !- Name
    ,                        !- Latitude {deg}
    ,                        !- Longitude {deg}
    ,                        !- Time Zone {hr}
    ;                        !- Elevation {m}


!-   ===========  ALL OBJECTS IN CLASS: SITE:VARIABLELOCATION ===========

Site:VariableLocation,
    ;                        !- Name


!-   ===========  ALL OBJECTS IN CLASS: SIZINGPERIOD:DESIGNDAY ===========

SizingPeriod:DesignDay,
    ,                        !- Name
    ,                        !- Month
    ,                        !- Day of Month
    ,                        !- Day Type
    ,                        !- Maximum Dry-Bulb Temperature {C}
    ,                        !- Daily Dry-Bulb Temperature Range {deltaC}
    DefaultMultipliers,      !- Dry-Bulb Temperature Range Modifier Type
    ,                        !- Dry-Bulb Temperature Range Modifier Day Schedule Name
    WetBulb,                 !- Humidity Condition Type
    ,                        !- Wetbulb or DewPoint at Maximum Dry-Bulb {C}
    ,                        !- Humidity Condition Day Schedule Name
    ,                        !- Humidity Ratio at Maximum Dry-Bulb {kgWater/kgDryAir}
    ,                        !- Enthalpy at Maximum Dry-Bulb {J/kg}
    ,                        !- Daily Wet-Bulb Temperature Range {deltaC}
    ,                        !- Barometric Pressure {Pa}
    ,                        !- Wind Speed {m/s}
    ,                        !- Wind Direction {deg}
    No,                      !- Rain Indicator
    No,                      !- Snow Indicator
    No,                      !- Daylight Saving Time Indicator
    ASHRAEClearSky,          !- Solar Model Indicator
    ,                        !- Beam Solar Day Schedule Name
    ,                        !- Diffuse Solar Day Schedule Name
    ,                        !- ASHRAE Clear Sky Optical Depth for Beam Irradiance (taub) {dimensionless}
    ,                        !- ASHRAE Clear Sky Optical Depth for Diffuse Irradiance (taud) {dimensionless}
    ,                        !- Sky Clearness
    ,                        !- Maximum Number Warmup Days
    FullResetAtBeginEnvironment;  !- Begin Environment Reset Mode


!-   ===========  ALL OBJECTS IN CLASS: SIZINGPERIOD:WEATHERFILEDAYS ===========

SizingPeriod:WeatherFileDays,
    ,                        !- Name
    ,                        !- Begin Month
    ,                        !- Begin Day of Month
    ,                        !- End Month
    ,                        !- End Day of Month
    Monday,                  !- Day of Week for Start Day
    Yes,                     !- Use Weather File Daylight Saving Period
    Yes;                     !- Use Weather File Rain and Snow Indicators


!-   ===========  ALL OBJECTS IN CLASS: SIZINGPERIOD:WEATHERFILECONDITIONTYPE ===========

SizingPeriod:WeatherFileConditionType,
    ,                        !- Name
    ,                        !- Period Selection
    Monday,                  !- Day of Week for Start Day
    Yes,                     !- Use Weather File Daylight Saving Period
    Yes;                     !- Use Weather File Rain and Snow Indicators


!-   ===========  ALL OBJECTS IN CLASS: RUNPERIOD ===========

RunPeriod,
    ,                        !- Name
    ,                        !- Begin Month
    ,                        !- Begin Day of Month
    ,                        !- Begin Year
    ,                        !- End Month
    ,                        !- End Day of Month
    ,                        !- End Year
    ,                        !- Day of Week for Start Day
    Yes,                     !- Use Weather File Holidays and Special Days
    Yes,                     !- Use Weather File Daylight Saving Period
    No,                      !- Apply Weekend Holiday Rule
    Yes,                     !- Use Weather File Rain Indicators
    Yes,                     !- Use Weather File Snow Indicators
    No,                      !- Treat Weather as Actual
    Hour24;                  !- First Hour Interpolation Starting Values


!-   ===========  ALL OBJECTS IN CLASS: RUNPERIODCONTROL:SPECIALDAYS ===========

RunPeriodControl:SpecialDays,
    ,                        !- Name
    ,                        !- Start Date
    1,                       !- Duration {days}
    Holiday;                 !- Special Day Type


!-   ===========  ALL OBJECTS IN CLASS: RUNPERIODCONTROL:DAYLIGHTSAVINGTIME ===========

RunPeriodControl:DaylightSavingTime,
    ,                        !- Start Date
    ;                        !- End Date


!-   ===========  ALL OBJECTS IN CLASS: WEATHERPROPERTY:SKYTEMPERATURE ===========

WeatherProperty:SkyTemperature,
    ,                        !- Name
    ClarkAllen,              !- Calculation Type
    ,                        !- Schedule Name
    Yes;                     !- Use Weather File Horizontal IR


!-   ===========  ALL OBJECTS IN CLASS: SITE:WEATHERSTATION ===========

Site:WeatherStation,
    10,                      !- Wind Sensor Height Above Ground {m}
    0.14,                    !- Wind Speed Profile Exponent
    270,                     !- Wind Speed Profile Boundary Layer Thickness {m}
    1.5;                     !- Air Temperature Sensor Height Above Ground {m}


!-   ===========  ALL OBJECTS IN CLASS: SITE:HEIGHTVARIATION ===========

Site:HeightVariation,
    0.22,                    !- Wind Speed Profile Exponent
    370,                     !- Wind Speed Profile Boundary Layer Thickness {m}
    0.0065;                  !- Air Temperature Gradient Coefficient {K/m}


!-   ===========  ALL OBJECTS IN CLASS: SITE:GROUNDTEMPERATURE:BUILDINGSURFACE ===========

Site:GroundTemperature:BuildingSurface,
    18,                      !- January Ground Temperature {C}
    18,                      !- February Ground Temperature {C}
    18,                      !- March Ground Temperature {C}
    18,                      !- April Ground Temperature {C}
    18,                      !- May Ground Temperature {C}
    18,                      !- June Ground Temperature {C}
    18,                      !- July Ground Temperature {C}
    18,                      !- August Ground Temperature {C}
    18,                      !- September Ground Temperature {C}
    18,                      !- October Ground Temperature {C}
    18,                      !- November Ground Temperature {C}
    18;                      !- December Ground Temperature {C}


!-   ===========  ALL OBJECTS IN CLASS: SITE:GROUNDTEMPERATURE:FCFACTORMETHOD ===========

Site:GroundTemperature:FCfactorMethod,
    13,                      !- January Ground Temperature {C}
    13,                      !- February Ground Temperature {C}
    13,                      !- March Ground Temperature {C}
    13,                      !- April Ground Temperature {C}
    13,                      !- May Ground Temperature {C}
    13,                      !- June Ground Temperature {C}
    13,                      !- July Ground Temperature {C}
    13,                      !- August Ground Temperature {C}
    13,                      !- September Ground Temperature {C}
    13,                      !- October Ground Temperature {C}
    13,                      !- November Ground Temperature {C}
    13;                      !- December Ground Temperature {C}


!-   ===========  ALL OBJECTS IN CLASS: SITE:GROUNDTEMPERATURE:SHALLOW ===========

Site:GroundTemperature:Shallow,
    13,                      !- January Surface Ground Temperature {C}
    13,                      !- February Surface Ground Temperature {C}
    13,                      !- March Surface Ground Temperature {C}
    13,                      !- April Surface Ground Temperature {C}
    13,                      !- May Surface Ground Temperature {C}
    13,                      !- June Surface Ground Temperature {C}
    13,                      !- July Surface Ground Temperature {C}
    13,                      !- August Surface Ground Temperature {C}
    13,                      !- September Surface Ground Temperature {C}
    13,                      !- October Surface Ground Temperature {C}
    13,                      !- November Surface Ground Temperature {C}
    13;                      !- December Surface Ground Temperature {C}


!-   ===========  ALL OBJECTS IN CLASS: SITE:GROUNDTEMPERATURE:DEEP ===========

Site:GroundTemperature:Deep,
    16,                      !- January Deep Ground Temperature {C}
    16,                      !- February Deep Ground Temperature {C}
    16,                      !- March Deep Ground Temperature {C}
    16,                      !- April Deep Ground Temperature {C}
    16,                      !- May Deep Ground Temperature {C}
    16,                      !- June Deep Ground Temperature {C}
    16,                      !- July Deep Ground Temperature {C}
    16,                      !- August Deep Ground Temperature {C}
    16,                      !- September Deep Ground Temperature {C}
    16,                      !- October Deep Ground Temperature {C}
    16,                      !- November Deep Ground Temperature {C}
    16;                      !- December Deep Ground Temperature {C}


!-   ===========  ALL OBJECTS IN CLASS: SITE:GROUNDTEMPERATURE:UNDISTURBED:FINITEDIFFERENCE ===========

Site:GroundTemperature:Undisturbed:FiniteDifference,
    ,                        !- Name
    ,                        !- Soil Thermal Conductivity {W/m-K}
    ,                        !- Soil Density {kg/m3}
    ,                        !- Soil Specific Heat {J/kg-K}
    30,                      !- Soil Moisture Content Volume Fraction {percent}
    50,                      !- Soil Moisture Content Volume Fraction at Saturation {percent}
    0.4;                     !- Evapotranspiration Ground Cover Parameter {dimensionless}


!-   ===========  ALL OBJECTS IN CLASS: SITE:GROUNDTEMPERATURE:UNDISTURBED:KUSUDAACHENBACH ===========

Site:GroundTemperature:Undisturbed:KusudaAchenbach,
    ,                        !- Name
    ,                        !- Soil Thermal Conductivity {W/m-K}
    ,                        !- Soil Density {kg/m3}
    ,                        !- Soil Specific Heat {J/kg-K}
    ,                        !- Average Soil Surface Temperature {C}
    ,                        !- Average Amplitude of Surface Temperature {deltaC}
    ;                        !- Phase Shift of Minimum Surface Temperature {days}


!-   ===========  ALL OBJECTS IN CLASS: SITE:GROUNDTEMPERATURE:UNDISTURBED:XING ===========

Site:GroundTemperature:Undisturbed:Xing,
    ,                        !- Name
    ,                        !- Soil Thermal Conductivity {W/m-K}
    ,                        !- Soil Density {kg/m3}
    ,                        !- Soil Specific Heat {J/kg-K}
    ,                        !- Average Soil Surface Tempeature {C}
    ,                        !- Soil Surface Temperature Amplitude 1 {deltaC}
    ,                        !- Soil Surface Temperature Amplitude 2 {deltaC}
    ,                        !- Phase Shift of Temperature Amplitude 1 {days}
    ;                        !- Phase Shift of Temperature Amplitude 2 {days}


!-   ===========  ALL OBJECTS IN CLASS: SITE:GROUNDDOMAIN:SLAB ===========

Site:GroundDomain:Slab,
    ,                        !- Name
    10,                      !- Ground Domain Depth {m}
    1,                       !- Aspect Ratio
    5,                       !- Perimeter Offset {m}
    1.5,                     !- Soil Thermal Conductivity {W/m-K}
    2800,                    !- Soil Density {kg/m3}
    850,                     !- Soil Specific Heat {J/kg-K}
    30,                      !- Soil Moisture Content Volume Fraction {percent}
    50,                      !- Soil Moisture Content Volume Fraction at Saturation {percent}
    ,                        !- Undisturbed Ground Temperature Model Type
    ,                        !- Undisturbed Ground Temperature Model Name
    0.4,                     !- Evapotranspiration Ground Cover Parameter
    ,                        !- Slab Boundary Condition Model Name
    ,                        !- Slab Location
    ,                        !- Slab Material Name
    No,                      !- Horizontal Insulation
    ,                        !- Horizontal Insulation Material Name
    Full,                    !- Horizontal Insulation Extents
    ,                        !- Perimeter Insulation Width {m}
    No,                      !- Vertical Insulation
    ,                        !- Vertical Insulation Material Name
    ,                        !- Vertical Insulation Depth {m}
    Hourly,                  !- Simulation Timestep
    1.6,                     !- Geometric Mesh Coefficient
    6;                       !- Mesh Density Parameter


!-   ===========  ALL OBJECTS IN CLASS: SITE:GROUNDDOMAIN:BASEMENT ===========

Site:GroundDomain:Basement,
    ,                        !- Name
    10,                      !- Ground Domain Depth {m}
    1,                       !- Aspect Ratio
    5,                       !- Perimeter Offset {m}
    1.5,                     !- Soil Thermal Conductivity {W/m-K}
    2800,                    !- Soil Density {kg/m3}
    850,                     !- Soil Specific Heat {J/kg-K}
    30,                      !- Soil Moisture Content Volume Fraction {percent}
    50,                      !- Soil Moisture Content Volume Fraction at Saturation {percent}
    ,                        !- Undisturbed Ground Temperature Model Type
    ,                        !- Undisturbed Ground Temperature Model Name
    0.4,                     !- Evapotranspiration Ground Cover Parameter
    ,                        !- Basement Floor Boundary Condition Model Name
    No,                      !- Horizontal Insulation
    ,                        !- Horizontal Insulation Material Name
    Full,                    !- Horizontal Insulation Extents
    ,                        !- Perimeter Horizontal Insulation Width {m}
    ,                        !- Basement Wall Depth {m}
    ,                        !- Basement Wall Boundary Condition Model Name
    No,                      !- Vertical Insulation
    ,                        !- Basement Wall Vertical Insulation Material Name
    ,                        !- Vertical Insulation Depth {m}
    Hourly,                  !- Simulation Timestep
    4;                       !- Mesh Density Parameter


!-   ===========  ALL OBJECTS IN CLASS: SITE:GROUNDREFLECTANCE ===========

Site:GroundReflectance,
    0.2,                     !- January Ground Reflectance {dimensionless}
    0.2,                     !- February Ground Reflectance {dimensionless}
    0.2,                     !- March Ground Reflectance {dimensionless}
    0.2,                     !- April Ground Reflectance {dimensionless}
    0.2,                     !- May Ground Reflectance {dimensionless}
    0.2,                     !- June Ground Reflectance {dimensionless}
    0.2,                     !- July Ground Reflectance {dimensionless}
    0.2,                     !- August Ground Reflectance {dimensionless}
    0.2,                     !- September Ground Reflectance {dimensionless}
    0.2,                     !- October Ground Reflectance {dimensionless}
    0.2,                     !- November Ground Reflectance {dimensionless}
    0.2;                     !- December Ground Reflectance {dimensionless}


!-   ===========  ALL OBJECTS IN CLASS: SITE:GROUNDREFLECTANCE:SNOWMODIFIER ===========

Site:GroundReflectance:SnowModifier,
    1,                       !- Ground Reflected Solar Modifier
    1;                       !- Daylighting Ground Reflected Solar Modifier


!-   ===========  ALL OBJECTS IN CLASS: SITE:WATERMAINSTEMPERATURE ===========

Site:WaterMainsTemperature,
    CorrelationFromWeatherFile;  !- Calculation Method


!-   ===========  ALL OBJECTS IN CLASS: SITE:PRECIPITATION ===========

Site:Precipitation,
    ;                        !- Precipitation Model Type


!-   ===========  ALL OBJECTS IN CLASS: ROOFIRRIGATION ===========

RoofIrrigation,
    ,                        !- Irrigation Model Type
    ,                        !- Irrigation Rate Schedule Name
    40;                      !- Irrigation Maximum Saturation Threshold {percent}


!-   ===========  ALL OBJECTS IN CLASS: SITE:SOLARANDVISIBLESPECTRUM ===========

Site:SolarAndVisibleSpectrum,
    ,                        !- Name
    Default;                 !- Spectrum Data Method


!-   ===========  ALL OBJECTS IN CLASS: SITE:SPECTRUMDATA ===========

Site:SpectrumData,
    ,                        !- Name
    ,                        !- Spectrum Data Type
    ,                        !- Wavelength {micron}
    ,                        !- Spectrum
    ,                        !- Wavelength {micron}
    ,                        !- Spectrum
    ,                        !- Wavelength {micron}
    ;                        !- Spectrum


!-   ===========  ALL OBJECTS IN CLASS: SCHEDULETYPELIMITS ===========

ScheduleTypeLimits,
    ,                        !- Name
    ,                        !- Lower Limit Value
    ,                        !- Upper Limit Value
    ,                        !- Numeric Type
    Dimensionless;           !- Unit Type


!-   ===========  ALL OBJECTS IN CLASS: SCHEDULE:DAY:HOURLY ===========

Schedule:Day:Hourly,
    ,                        !- Name
    ,                        !- Schedule Type Limits Name
    ,                        !- Hour 1
    ,                        !- Hour 2
    ,                        !- Hour 3
    ,                        !- Hour 4
    ,                        !- Hour 5
    ,                        !- Hour 6
    ,                        !- Hour 7
    ,                        !- Hour 8
    ,                        !- Hour 9
    ,                        !- Hour 10
    ,                        !- Hour 11
    ,                        !- Hour 12
    ,                        !- Hour 13
    ,                        !- Hour 14
    ,                        !- Hour 15
    ,                        !- Hour 16
    ,                        !- Hour 17
    ,                        !- Hour 18
    ,                        !- Hour 19
    ,                        !- Hour 20
    ,                        !- Hour 21
    ,                        !- Hour 22
    ,                        !- Hour 23
    ;                        !- Hour 24


!-   ===========  ALL OBJECTS IN CLASS: SCHEDULE:DAY:INTERVAL ===========

Schedule:Day:Interval,
    ,                        !- Name
    ,                        !- Schedule Type Limits Name
    No,                      !- Interpolate to Timestep
    ,                        !- Time 1 {hh:mm}
    ;                        !- Value Until Time 1


!-   ===========  ALL OBJECTS IN CLASS: SCHEDULE:DAY:LIST ===========

Schedule:Day:List,
    ,                        !- Name
    ,                        !- Schedule Type Limits Name
    No,                      !- Interpolate to Timestep
    ,                        !- Minutes per Item
    ;                        !- Value 1


!-   ===========  ALL OBJECTS IN CLASS: SCHEDULE:WEEK:DAILY ===========

Schedule:Week:Daily,
    ,                        !- Name
    ,                        !- Sunday Schedule:Day Name
    ,                        !- Monday Schedule:Day Name
    ,                        !- Tuesday Schedule:Day Name
    ,                        !- Wednesday Schedule:Day Name
    ,                        !- Thursday Schedule:Day Name
    ,                        !- Friday Schedule:Day Name
    ,                        !- Saturday Schedule:Day Name
    ,                        !- Holiday Schedule:Day Name
    ,                        !- SummerDesignDay Schedule:Day Name
    ,                        !- WinterDesignDay Schedule:Day Name
    ,                        !- CustomDay1 Schedule:Day Name
    ;                        !- CustomDay2 Schedule:Day Name


!-   ===========  ALL OBJECTS IN CLASS: SCHEDULE:WEEK:COMPACT ===========

Schedule:Week:Compact,
    ,                        !- Name
    ,                        !- DayType List 1
    ;                        !- Schedule:Day Name 1


!-   ===========  ALL OBJECTS IN CLASS: SCHEDULE:YEAR ===========

Schedule:Year,
    ,                        !- Name
    ,                        !- Schedule Type Limits Name
    ,                        !- Schedule:Week Name 1
    ,                        !- Start Month 1
    ,                        !- Start Day 1
    ,                        !- End Month 1
    ;                        !- End Day 1


!-   ===========  ALL OBJECTS IN CLASS: SCHEDULE:COMPACT ===========

Schedule:Compact,
    ,                        !- Name
    ,                        !- Schedule Type Limits Name
    ,                        !- Field 1
    ,                        !- Field 2
    ;                        !- Field 3


!-   ===========  ALL OBJECTS IN CLASS: SCHEDULE:CONSTANT ===========

Schedule:Constant,
    ;                        !- Name


!-   ===========  ALL OBJECTS IN CLASS: SCHEDULE:FILE:SHADING ===========

Schedule:File:Shading,
    ;                        !- File Name


!-   ===========  ALL OBJECTS IN CLASS: SCHEDULE:FILE ===========

Schedule:File,
    ,                        !- Name
    ,                        !- Schedule Type Limits Name
    ,                        !- File Name
    ,                        !- Column Number
    ,                        !- Rows to Skip at Top
    8760,                    !- Number of Hours of Data
    Comma,                   !- Column Separator
    No,                      !- Interpolate to Timestep
    60,                      !- Minutes per Item
    Yes;                     !- Adjust Schedule for Daylight Savings


!-   ===========  ALL OBJECTS IN CLASS: MATERIAL ===========

Material,
    ,                        !- Name
    ,                        !- Roughness
    ,                        !- Thickness {m}
    ,                        !- Conductivity {W/m-K}
    ,                        !- Density {kg/m3}
    ,                        !- Specific Heat {J/kg-K}
    0.9,                     !- Thermal Absorptance
    0.7,                     !- Solar Absorptance
    0.7;                     !- Visible Absorptance


!-   ===========  ALL OBJECTS IN CLASS: MATERIAL:NOMASS ===========

Material:NoMass,
    ,                        !- Name
    ,                        !- Roughness
    ,                        !- Thermal Resistance {m2-K/W}
    0.9,                     !- Thermal Absorptance
    0.7,                     !- Solar Absorptance
    0.7;                     !- Visible Absorptance


!-   ===========  ALL OBJECTS IN CLASS: MATERIAL:INFRAREDTRANSPARENT ===========

Material:InfraredTransparent,
    ;                        !- Name


!-   ===========  ALL OBJECTS IN CLASS: MATERIAL:AIRGAP ===========

Material:AirGap,
    ,                        !- Name
    ;                        !- Thermal Resistance {m2-K/W}


!-   ===========  ALL OBJECTS IN CLASS: MATERIAL:ROOFVEGETATION ===========

Material:RoofVegetation,
    ,                        !- Name
    0.2,                     !- Height of Plants {m}
    1,                       !- Leaf Area Index {dimensionless}
    0.22,                    !- Leaf Reflectivity {dimensionless}
    0.95,                    !- Leaf Emissivity
    180,                     !- Minimum Stomatal Resistance {s/m}
    Green Roof Soil,         !- Soil Layer Name
    MediumRough,             !- Roughness
    0.1,                     !- Thickness {m}
    0.35,                    !- Conductivity of Dry Soil {W/m-K}
    1100,                    !- Density of Dry Soil {kg/m3}
    1200,                    !- Specific Heat of Dry Soil {J/kg-K}
    0.9,                     !- Thermal Absorptance
    0.7,                     !- Solar Absorptance
    0.75,                    !- Visible Absorptance
    0.3,                     !- Saturation Volumetric Moisture Content of the Soil Layer
    0.01,                    !- Residual Volumetric Moisture Content of the Soil Layer
    0.1,                     !- Initial Volumetric Moisture Content of the Soil Layer
    Advanced;                !- Moisture Diffusion Calculation Method


!-   ===========  ALL OBJECTS IN CLASS: WINDOWMATERIAL:SIMPLEGLAZINGSYSTEM ===========

WindowMaterial:SimpleGlazingSystem,
    ,                        !- Name
    ,                        !- U-Factor {W/m2-K}
    ;                        !- Solar Heat Gain Coefficient


!-   ===========  ALL OBJECTS IN CLASS: WINDOWMATERIAL:GLAZING ===========

WindowMaterial:Glazing,
    ,                        !- Name
    ,                        !- Optical Data Type
    ,                        !- Window Glass Spectral Data Set Name
    ,                        !- Thickness {m}
    ,                        !- Solar Transmittance at Normal Incidence
    ,                        !- Front Side Solar Reflectance at Normal Incidence
    ,                        !- Back Side Solar Reflectance at Normal Incidence
    ,                        !- Visible Transmittance at Normal Incidence
    ,                        !- Front Side Visible Reflectance at Normal Incidence
    ,                        !- Back Side Visible Reflectance at Normal Incidence
    ,                        !- Infrared Transmittance at Normal Incidence
    0.84,                    !- Front Side Infrared Hemispherical Emissivity
    0.84,                    !- Back Side Infrared Hemispherical Emissivity
    0.9,                     !- Conductivity {W/m-K}
    1,                       !- Dirt Correction Factor for Solar and Visible Transmittance
    No,                      !- Solar Diffusing
    72000000000,             !- Young's modulus {Pa}
    0.22;                    !- Poisson's ratio


!-   ===========  ALL OBJECTS IN CLASS: WINDOWMATERIAL:GLAZINGGROUP:THERMOCHROMIC ===========

WindowMaterial:GlazingGroup:Thermochromic,
    ,                        !- Name
    ,                        !- Optical Data Temperature 1 {C}
    ;                        !- Window Material Glazing Name 1


!-   ===========  ALL OBJECTS IN CLASS: WINDOWMATERIAL:GLAZING:REFRACTIONEXTINCTIONMETHOD ===========

WindowMaterial:Glazing:RefractionExtinctionMethod,
    ,                        !- Name
    ,                        !- Thickness {m}
    ,                        !- Solar Index of Refraction
    ,                        !- Solar Extinction Coefficient {1/m}
    ,                        !- Visible Index of Refraction
    ,                        !- Visible Extinction Coefficient {1/m}
    ,                        !- Infrared Transmittance at Normal Incidence
    0.84,                    !- Infrared Hemispherical Emissivity
    0.9,                     !- Conductivity {W/m-K}
    1,                       !- Dirt Correction Factor for Solar and Visible Transmittance
    No;                      !- Solar Diffusing


!-   ===========  ALL OBJECTS IN CLASS: WINDOWMATERIAL:GAS ===========

WindowMaterial:Gas,
    ,                        !- Name
    ,                        !- Gas Type
    ;                        !- Thickness {m}


!-   ===========  ALL OBJECTS IN CLASS: WINDOWGAP:SUPPORTPILLAR ===========

WindowGap:SupportPillar,
    ,                        !- Name
    0.04,                    !- Spacing {m}
    0.0004;                  !- Radius {m}


!-   ===========  ALL OBJECTS IN CLASS: WINDOWGAP:DEFLECTIONSTATE ===========

WindowGap:DeflectionState,
    ,                        !- Name
    ,                        !- Deflected Thickness {m}
    25,                      !- Initial Temperature {C}
    101325;                  !- Initial Pressure {Pa}


!-   ===========  ALL OBJECTS IN CLASS: WINDOWMATERIAL:GASMIXTURE ===========

WindowMaterial:GasMixture,
    ,                        !- Name
    ,                        !- Thickness {m}
    ,                        !- Number of Gases in Mixture
    ,                        !- Gas 1 Type
    ,                        !- Gas 1 Fraction
    ,                        !- Gas 2 Type
    ;                        !- Gas 2 Fraction


!-   ===========  ALL OBJECTS IN CLASS: WINDOWMATERIAL:GAP ===========

WindowMaterial:Gap,
    ,                        !- Name
    ,                        !- Thickness {m}
    ,                        !- Gas (or Gas Mixture)
    101325;                  !- Pressure {Pa}


!-   ===========  ALL OBJECTS IN CLASS: WINDOWMATERIAL:SHADE ===========

WindowMaterial:Shade,
    ,                        !- Name
    ,                        !- Solar Transmittance {dimensionless}
    ,                        !- Solar Reflectance {dimensionless}
    ,                        !- Visible Transmittance {dimensionless}
    ,                        !- Visible Reflectance {dimensionless}
    ,                        !- Infrared Hemispherical Emissivity {dimensionless}
    ,                        !- Infrared Transmittance {dimensionless}
    ,                        !- Thickness {m}
    ,                        !- Conductivity {W/m-K}
    0.05,                    !- Shade to Glass Distance {m}
    0.5,                     !- Top Opening Multiplier
    0.5,                     !- Bottom Opening Multiplier
    0.5,                     !- Left-Side Opening Multiplier
    0.5,                     !- Right-Side Opening Multiplier
    ;                        !- Airflow Permeability {dimensionless}


!-   ===========  ALL OBJECTS IN CLASS: WINDOWMATERIAL:COMPLEXSHADE ===========

WindowMaterial:ComplexShade,
    ,                        !- Name
    OtherShadingType,        !- Layer Type
    0.002,                   !- Thickness {m}
    1,                       !- Conductivity {W/m-K}
    ,                        !- IR Transmittance
    0.84,                    !- Front Emissivity
    0.84,                    !- Back Emissivity
    ,                        !- Top Opening Multiplier
    ,                        !- Bottom Opening Multiplier
    ,                        !- Left Side Opening Multiplier
    ,                        !- Right Side Opening Multiplier
    0.05,                    !- Front Opening Multiplier
    0.016,                   !- Slat Width {m}
    0.012,                   !- Slat Spacing {m}
    0.0006,                  !- Slat Thickness {m}
    90,                      !- Slat Angle {deg}
    160;                     !- Slat Conductivity {W/m-K}


!-   ===========  ALL OBJECTS IN CLASS: WINDOWMATERIAL:BLIND ===========

WindowMaterial:Blind,
    ,                        !- Name
    Horizontal,              !- Slat Orientation
    ,                        !- Slat Width {m}
    ,                        !- Slat Separation {m}
    0.00025,                 !- Slat Thickness {m}
    45,                      !- Slat Angle {deg}
    221,                     !- Slat Conductivity {W/m-K}
    ,                        !- Slat Beam Solar Transmittance
    ,                        !- Front Side Slat Beam Solar Reflectance
    ,                        !- Back Side Slat Beam Solar Reflectance
    ,                        !- Slat Diffuse Solar Transmittance
    ,                        !- Front Side Slat Diffuse Solar Reflectance
    ,                        !- Back Side Slat Diffuse Solar Reflectance
    ,                        !- Slat Beam Visible Transmittance
    ,                        !- Front Side Slat Beam Visible Reflectance
    ,                        !- Back Side Slat Beam Visible Reflectance
    ,                        !- Slat Diffuse Visible Transmittance
    ,                        !- Front Side Slat Diffuse Visible Reflectance
    ,                        !- Back Side Slat Diffuse Visible Reflectance
    ,                        !- Slat Infrared Hemispherical Transmittance
    0.9,                     !- Front Side Slat Infrared Hemispherical Emissivity
    0.9,                     !- Back Side Slat Infrared Hemispherical Emissivity
    0.05,                    !- Blind to Glass Distance {m}
    0.5,                     !- Blind Top Opening Multiplier
    ,                        !- Blind Bottom Opening Multiplier
    0.5,                     !- Blind Left Side Opening Multiplier
    0.5,                     !- Blind Right Side Opening Multiplier
    ,                        !- Minimum Slat Angle {deg}
    180;                     !- Maximum Slat Angle {deg}


!-   ===========  ALL OBJECTS IN CLASS: WINDOWMATERIAL:SCREEN ===========

WindowMaterial:Screen,
    ,                        !- Name
    ModelAsDiffuse,          !- Reflected Beam Transmittance Accounting Method
    ,                        !- Diffuse Solar Reflectance {dimensionless}
    ,                        !- Diffuse Visible Reflectance {dimensionless}
    0.9,                     !- Thermal Hemispherical Emissivity {dimensionless}
    221,                     !- Conductivity {W/m-K}
    ,                        !- Screen Material Spacing {m}
    ,                        !- Screen Material Diameter {m}
    0.025;                   !- Screen to Glass Distance {m}


!-   ===========  ALL OBJECTS IN CLASS: WINDOWMATERIAL:SHADE:EQUIVALENTLAYER ===========

WindowMaterial:Shade:EquivalentLayer,
    ,                        !- Name
    ,                        !- Shade Beam-Beam Solar Transmittance {dimensionless}
    ,                        !- Front Side Shade Beam-Diffuse Solar Transmittance {dimensionless}
    ,                        !- Back Side Shade Beam-Diffuse Solar Transmittance {dimensionless}
    ,                        !- Front Side Shade Beam-Diffuse Solar Reflectance {dimensionless}
    ,                        !- Back Side Shade Beam-Diffuse Solar Reflectance {dimensionless}
    ,                        !- Shade Beam-Beam Visible Transmittance at Normal Incidence {dimensionless}
    ,                        !- Shade Beam-Diffuse Visible Transmittance at Normal Incidence {dimensionless}
    ,                        !- Shade Beam-Diffuse Visible Reflectance at Normal Incidence {dimensionless}
    0.05,                    !- Shade Material Infrared Transmittance {dimensionless}
    0.91,                    !- Front Side Shade Material Infrared Emissivity {dimensionless}
    0.91;                    !- Back Side Shade Material Infrared Emissivity {dimensionless}


!-   ===========  ALL OBJECTS IN CLASS: WINDOWMATERIAL:DRAPE:EQUIVALENTLAYER ===========

WindowMaterial:Drape:EquivalentLayer,
    ,                        !- Name
    ,                        !- Drape Beam-Beam Solar Transmittance at Normal Incidence {dimensionless}
    ,                        !- Front Side Drape Beam-Diffuse Solar Transmittance {dimensionless}
    ,                        !- Back Side Drape Beam-Diffuse Solar Transmittance {dimensionless}
    ,                        !- Front Side Drape Beam-Diffuse Solar Reflectance {dimensionless}
    ,                        !- Back Side Drape Beam-Diffuse Solar Reflectance {dimensionless}
    ,                        !- Drape Beam-Beam Visible Transmittance {dimensionless}
    ,                        !- Drape Beam-Diffuse Visible Transmittance {dimensionless}
    ,                        !- Drape Beam-Diffuse Visible Reflectance {dimensionless}
    0.05,                    !- Drape Material Infrared Transmittance {dimensionless}
    0.87,                    !- Front Side Drape Material Infrared Emissivity {dimensionless}
    0.87;                    !- Back Side Drape Material Infrared Emissivity {dimensionless}


!-   ===========  ALL OBJECTS IN CLASS: WINDOWMATERIAL:BLIND:EQUIVALENTLAYER ===========

WindowMaterial:Blind:EquivalentLayer,
    ,                        !- Name
    Horizontal,              !- Slat Orientation
    ,                        !- Slat Width {m}
    ,                        !- Slat Separation {m}
    0.0015,                  !- Slat Crown {m}
    45,                      !- Slat Angle {deg}
    ,                        !- Front Side Slat Beam-Diffuse Solar Transmittance
    ,                        !- Back Side Slat Beam-Diffuse Solar Transmittance {dimensionless}
    ,                        !- Front Side Slat Beam-Diffuse Solar Reflectance {dimensionless}
    ,                        !- Back Side Slat Beam-Diffuse Solar Reflectance {dimensionless}
    ,                        !- Front Side Slat Beam-Diffuse Visible Transmittance {dimensionless}
    ,                        !- Back Side Slat Beam-Diffuse Visible Transmittance {dimensionless}
    ,                        !- Front Side Slat Beam-Diffuse Visible Reflectance {dimensionless}
    ,                        !- Back Side Slat Beam-Diffuse Visible Reflectance {dimensionless}
    ,                        !- Slat Diffuse-Diffuse Solar Transmittance {dimensionless}
    ,                        !- Front Side Slat Diffuse-Diffuse Solar Reflectance {dimensionless}
    ,                        !- Back Side Slat Diffuse-Diffuse Solar Reflectance {dimensionless}
    ,                        !- Slat Diffuse-Diffuse Visible Transmittance
    ,                        !- Front Side Slat Diffuse-Diffuse Visible Reflectance {dimensionless}
    ,                        !- Back Side Slat Diffuse-Diffuse Visible Reflectance {dimensionless}
    ,                        !- Slat Infrared Transmittance
    0.9,                     !- Front Side Slat Infrared Emissivity {dimensionless}
    0.9,                     !- Back Side Slat Infrared Emissivity {dimensionless}
    FixedSlatAngle;          !- Slat Angle Control


!-   ===========  ALL OBJECTS IN CLASS: WINDOWMATERIAL:SCREEN:EQUIVALENTLAYER ===========

WindowMaterial:Screen:EquivalentLayer,
    ,                        !- Name
    autocalculate,           !- Screen Beam-Beam Solar Transmittance {dimensionless}
    ,                        !- Screen Beam-Diffuse Solar Transmittance {dimensionless}
    ,                        !- Screen Beam-Diffuse Solar Reflectance {dimensionless}
    ,                        !- Screen Beam-Beam Visible Transmittance {dimensionless}
    ,                        !- Screen Beam-Diffuse Visible Transmittance {dimensionless}
    ,                        !- Screen Beam-Diffuse Visible Reflectance {dimensionless}
    0.02,                    !- Screen Infrared Transmittance {dimensionless}
    0.93,                    !- Screen Infrared Emissivity {dimensionless}
    0.025,                   !- Screen Wire Spacing {m}
    0.005;                   !- Screen Wire Diameter {m}


!-   ===========  ALL OBJECTS IN CLASS: WINDOWMATERIAL:GLAZING:EQUIVALENTLAYER ===========

WindowMaterial:Glazing:EquivalentLayer,
    ,                        !- Name
    SpectralAverage,         !- Optical Data Type
    ,                        !- Window Glass Spectral Data Set Name
    ,                        !- Front Side Beam-Beam Solar Transmittance {dimensionless}
    ,                        !- Back Side Beam-Beam Solar Transmittance {dimensionless}
    ,                        !- Front Side Beam-Beam Solar Reflectance {dimensionless}
    ,                        !- Back Side Beam-Beam Solar Reflectance {dimensionless}
    ,                        !- Front Side Beam-Beam Visible Solar Transmittance {dimensionless}
    ,                        !- Back Side Beam-Beam Visible Solar Transmittance {dimensionless}
    ,                        !- Front Side Beam-Beam Visible Solar Reflectance {dimensionless}
    ,                        !- Back Side Beam-Beam Visible Solar Reflectance {dimensionless}
    ,                        !- Front Side Beam-Diffuse Solar Transmittance {dimensionless}
    ,                        !- Back Side Beam-Diffuse Solar Transmittance {dimensionless}
    ,                        !- Front Side Beam-Diffuse Solar Reflectance {dimensionless}
    ,                        !- Back Side Beam-Diffuse Solar Reflectance {dimensionless}
    ,                        !- Front Side Beam-Diffuse Visible Solar Transmittance {dimensionless}
    ,                        !- Back Side Beam-Diffuse Visible Solar Transmittance {dimensionless}
    ,                        !- Front Side Beam-Diffuse Visible Solar Reflectance {dimensionless}
    ,                        !- Back Side Beam-Diffuse Visible Solar Reflectance {dimensionless}
    autocalculate,           !- Diffuse-Diffuse Solar Transmittance {dimensionless}
    autocalculate,           !- Front Side Diffuse-Diffuse Solar Reflectance {dimensionless}
    autocalculate,           !- Back Side Diffuse-Diffuse Solar Reflectance {dimensionless}
    autocalculate,           !- Diffuse-Diffuse Visible Solar Transmittance {dimensionless}
    autocalculate,           !- Front Side Diffuse-Diffuse Visible Solar Reflectance {dimensionless}
    autocalculate,           !- Back Side Diffuse-Diffuse Visible Solar Reflectance {dimensionless}
    ,                        !- Infrared Transmittance (applies to front and back) {dimensionless}
    0.84,                    !- Front Side Infrared Emissivity {dimensionless}
    0.84,                    !- Back Side Infrared Emissivity {dimensionless}
    0.158;                   !- Thermal Resistance {m2-K/W}


!-   ===========  ALL OBJECTS IN CLASS: WINDOWMATERIAL:GAP:EQUIVALENTLAYER ===========

WindowMaterial:Gap:EquivalentLayer,
    ,                        !- Name
    ,                        !- Gas Type
    ;                        !- Thickness {m}


!-   ===========  ALL OBJECTS IN CLASS: MATERIALPROPERTY:MOISTUREPENETRATIONDEPTH:SETTINGS ===========

MaterialProperty:MoisturePenetrationDepth:Settings,
    ,                        !- Name
    ,                        !- Water Vapor Diffusion Resistance Factor {dimensionless}
    ,                        !- Moisture Equation Coefficient a {dimensionless}
    ,                        !- Moisture Equation Coefficient b {dimensionless}
    ,                        !- Moisture Equation Coefficient c {dimensionless}
    ,                        !- Moisture Equation Coefficient d {dimensionless}
    autocalculate,           !- Surface Layer Penetration Depth {m}
    autocalculate,           !- Deep Layer Penetration Depth {m}
    ,                        !- Coating Layer Thickness {m}
    ;                        !- Coating Layer Water Vapor Diffusion Resistance Factor {dimensionless}


!-   ===========  ALL OBJECTS IN CLASS: MATERIALPROPERTY:PHASECHANGE ===========

MaterialProperty:PhaseChange,
    ;                        !- Name


!-   ===========  ALL OBJECTS IN CLASS: MATERIALPROPERTY:PHASECHANGEHYSTERESIS ===========

MaterialProperty:PhaseChangeHysteresis,
    ;                        !- Name


!-   ===========  ALL OBJECTS IN CLASS: MATERIALPROPERTY:VARIABLETHERMALCONDUCTIVITY ===========

MaterialProperty:VariableThermalConductivity,
    ;                        !- Name


!-   ===========  ALL OBJECTS IN CLASS: MATERIALPROPERTY:HEATANDMOISTURETRANSFER:SETTINGS ===========

MaterialProperty:HeatAndMoistureTransfer:Settings,
    ,                        !- Material Name
    ,                        !- Porosity {m3/m3}
    0.2;                     !- Initial Water Content Ratio {kg/kg}


!-   ===========  ALL OBJECTS IN CLASS: MATERIALPROPERTY:HEATANDMOISTURETRANSFER:SORPTIONISOTHERM ===========

MaterialProperty:HeatAndMoistureTransfer:SorptionIsotherm,
    ;                        !- Material Name


!-   ===========  ALL OBJECTS IN CLASS: MATERIALPROPERTY:HEATANDMOISTURETRANSFER:SUCTION ===========

MaterialProperty:HeatAndMoistureTransfer:Suction,
    ;                        !- Material Name


!-   ===========  ALL OBJECTS IN CLASS: MATERIALPROPERTY:HEATANDMOISTURETRANSFER:REDISTRIBUTION ===========

MaterialProperty:HeatAndMoistureTransfer:Redistribution,
    ;                        !- Material Name


!-   ===========  ALL OBJECTS IN CLASS: MATERIALPROPERTY:HEATANDMOISTURETRANSFER:DIFFUSION ===========

MaterialProperty:HeatAndMoistureTransfer:Diffusion,
    ;                        !- Material Name


!-   ===========  ALL OBJECTS IN CLASS: MATERIALPROPERTY:HEATANDMOISTURETRANSFER:THERMALCONDUCTIVITY ===========

MaterialProperty:HeatAndMoistureTransfer:ThermalConductivity,
    ;                        !- Material Name


!-   ===========  ALL OBJECTS IN CLASS: MATERIALPROPERTY:GLAZINGSPECTRALDATA ===========

MaterialProperty:GlazingSpectralData,
    ;                        !- Name


!-   ===========  ALL OBJECTS IN CLASS: CONSTRUCTION ===========

Construction,
    ;                        !- Name


!-   ===========  ALL OBJECTS IN CLASS: CONSTRUCTION:CFACTORUNDERGROUNDWALL ===========

Construction:CfactorUndergroundWall,
    ;                        !- Name


!-   ===========  ALL OBJECTS IN CLASS: CONSTRUCTION:FFACTORGROUNDFLOOR ===========

Construction:FfactorGroundFloor,
    ;                        !- Name


!-   ===========  ALL OBJECTS IN CLASS: CONSTRUCTIONPROPERTY:INTERNALHEATSOURCE ===========

ConstructionProperty:InternalHeatSource,
    ;                        !- Name


!-   ===========  ALL OBJECTS IN CLASS: CONSTRUCTION:AIRBOUNDARY ===========

Construction:AirBoundary,
    ,                        !- Name
    None,                    !- Air Exchange Method
    0.5,                     !- Simple Mixing Air Changes per Hour {1/hr}
    ;                        !- Simple Mixing Schedule Name


!-   ===========  ALL OBJECTS IN CLASS: WINDOWTHERMALMODEL:PARAMS ===========

WindowThermalModel:Params,
    ,                        !- Name
    ISO15099,                !- standard
    ISO15099,                !- Thermal Model
    1,                       !- SDScalar
    NoDeflection,            !- Deflection Model
    13.238,                  !- Vacuum Pressure Limit {Pa}
    25,                      !- Initial temperature {C}
    101325;                  !- Initial pressure {Pa}


!-   ===========  ALL OBJECTS IN CLASS: WINDOWSCALCULATIONENGINE ===========

WindowsCalculationEngine,
    BuiltInWindowsModel;     !- Windows engine


!-   ===========  ALL OBJECTS IN CLASS: CONSTRUCTION:COMPLEXFENESTRATIONSTATE ===========

Construction:ComplexFenestrationState,
    ,                        !- Name
    LBNLWINDOW,              !- Basis Type
    None;                    !- Basis Symmetry Type


!-   ===========  ALL OBJECTS IN CLASS: CONSTRUCTION:WINDOWEQUIVALENTLAYER ===========

Construction:WindowEquivalentLayer,
    ,                        !- Name
    ;                        !- Outside Layer


!-   ===========  ALL OBJECTS IN CLASS: CONSTRUCTION:WINDOWDATAFILE ===========

Construction:WindowDataFile,
    ;                        !- Name


!-   ===========  ALL OBJECTS IN CLASS: GLOBALGEOMETRYRULES ===========

GlobalGeometryRules,
    ,                        !- Starting Vertex Position
    ,                        !- Vertex Entry Direction
    ,                        !- Coordinate System
    Relative,                !- Daylighting Reference Point Coordinate System
    Relative;                !- Rectangular Surface Coordinate System


!-   ===========  ALL OBJECTS IN CLASS: GEOMETRYTRANSFORM ===========

GeometryTransform,
    XY,                      !- Plane of Transform
    ,                        !- Current Aspect Ratio
    ;                        !- New Aspect Ratio


!-   ===========  ALL OBJECTS IN CLASS: SPACE ===========

Space,
    ,                        !- Name
    ,                        !- Zone Name
    autocalculate,           !- Floor Area {m2}
    General;                 !- Space Type


!-   ===========  ALL OBJECTS IN CLASS: SPACELIST ===========

SpaceList,
    ,                        !- Name
    ;                        !- Space 1 Name


!-   ===========  ALL OBJECTS IN CLASS: ZONE ===========

Zone,
    ,                        !- Name
    ,                        !- Direction of Relative North {deg}
    ,                        !- X Origin {m}
    ,                        !- Y Origin {m}
    ,                        !- Z Origin {m}
    1,                       !- Type
    1,                       !- Multiplier
    autocalculate,           !- Ceiling Height {m}
    autocalculate,           !- Volume {m3}
    autocalculate,           !- Floor Area {m2}
    ,                        !- Zone Inside Convection Algorithm
    ,                        !- Zone Outside Convection Algorithm
    Yes;                     !- Part of Total Floor Area


!-   ===========  ALL OBJECTS IN CLASS: ZONELIST ===========

ZoneList,
    ,                        !- Name
    ;                        !- Zone 1 Name


!-   ===========  ALL OBJECTS IN CLASS: ZONEGROUP ===========

ZoneGroup,
    ,                        !- Name
    ,                        !- Zone List Name
    1;                       !- Zone List Multiplier


!-   ===========  ALL OBJECTS IN CLASS: BUILDINGSURFACE:DETAILED ===========

BuildingSurface:Detailed,
    ,                        !- Name
    ,                        !- Surface Type
    ,                        !- Construction Name
    ,                        !- Zone Name
    ,                        !- Space Name
    ,                        !- Outside Boundary Condition
    ,                        !- Outside Boundary Condition Object
    SunExposed,              !- Sun Exposure
    WindExposed,             !- Wind Exposure
    autocalculate,           !- View Factor to Ground
    autocalculate,           !- Number of Vertices
    ,                        !- Vertex 1 X-coordinate {m}
    ,                        !- Vertex 1 Y-coordinate {m}
    ,                        !- Vertex 1 Z-coordinate {m}
    ,                        !- Vertex 2 X-coordinate {m}
    ,                        !- Vertex 2 Y-coordinate {m}
    ,                        !- Vertex 2 Z-coordinate {m}
    ,                        !- Vertex 3 X-coordinate {m}
    ,                        !- Vertex 3 Y-coordinate {m}
    ;                        !- Vertex 3 Z-coordinate {m}


!-   ===========  ALL OBJECTS IN CLASS: WALL:DETAILED ===========

Wall:Detailed,
    ,                        !- Name
    ,                        !- Construction Name
    ,                        !- Zone Name
    ,                        !- Space Name
    ,                        !- Outside Boundary Condition
    ,                        !- Outside Boundary Condition Object
    SunExposed,              !- Sun Exposure
    WindExposed,             !- Wind Exposure
    autocalculate,           !- View Factor to Ground
    autocalculate,           !- Number of Vertices
    ,                        !- Vertex 1 X-coordinate {m}
    ,                        !- Vertex 1 Y-coordinate {m}
    ,                        !- Vertex 1 Z-coordinate {m}
    ,                        !- Vertex 2 X-coordinate {m}
    ,                        !- Vertex 2 Y-coordinate {m}
    ,                        !- Vertex 2 Z-coordinate {m}
    ,                        !- Vertex 3 X-coordinate {m}
    ,                        !- Vertex 3 Y-coordinate {m}
    ;                        !- Vertex 3 Z-coordinate {m}


!-   ===========  ALL OBJECTS IN CLASS: ROOFCEILING:DETAILED ===========

RoofCeiling:Detailed,
    ,                        !- Name
    ,                        !- Construction Name
    ,                        !- Zone Name
    ,                        !- Space Name
    ,                        !- Outside Boundary Condition
    ,                        !- Outside Boundary Condition Object
    SunExposed,              !- Sun Exposure
    WindExposed,             !- Wind Exposure
    autocalculate,           !- View Factor to Ground
    autocalculate,           !- Number of Vertices
    ,                        !- Vertex 1 X-coordinate {m}
    ,                        !- Vertex 1 Y-coordinate {m}
    ,                        !- Vertex 1 Z-coordinate {m}
    ,                        !- Vertex 2 X-coordinate {m}
    ,                        !- Vertex 2 Y-coordinate {m}
    ,                        !- Vertex 2 Z-coordinate {m}
    ,                        !- Vertex 3 X-coordinate {m}
    ,                        !- Vertex 3 Y-coordinate {m}
    ;                        !- Vertex 3 Z-coordinate {m}


!-   ===========  ALL OBJECTS IN CLASS: FLOOR:DETAILED ===========

Floor:Detailed,
    ,                        !- Name
    ,                        !- Construction Name
    ,                        !- Zone Name
    ,                        !- Space Name
    ,                        !- Outside Boundary Condition
    ,                        !- Outside Boundary Condition Object
    SunExposed,              !- Sun Exposure
    WindExposed,             !- Wind Exposure
    autocalculate,           !- View Factor to Ground
    autocalculate,           !- Number of Vertices
    ,                        !- Vertex 1 X-coordinate {m}
    ,                        !- Vertex 1 Y-coordinate {m}
    ,                        !- Vertex 1 Z-coordinate {m}
    ,                        !- Vertex 2 X-coordinate {m}
    ,                        !- Vertex 2 Y-coordinate {m}
    ,                        !- Vertex 2 Z-coordinate {m}
    ,                        !- Vertex 3 X-coordinate {m}
    ,                        !- Vertex 3 Y-coordinate {m}
    ;                        !- Vertex 3 Z-coordinate {m}


!-   ===========  ALL OBJECTS IN CLASS: WALL:EXTERIOR ===========

Wall:Exterior,
    ,                        !- Name
    ,                        !- Construction Name
    ,                        !- Zone Name
    ,                        !- Space Name
    ,                        !- Azimuth Angle {deg}
    90;                      !- Tilt Angle {deg}


!-   ===========  ALL OBJECTS IN CLASS: WALL:ADIABATIC ===========

Wall:Adiabatic,
    ,                        !- Name
    ,                        !- Construction Name
    ,                        !- Zone Name
    ,                        !- Space Name
    ,                        !- Azimuth Angle {deg}
    90;                      !- Tilt Angle {deg}


!-   ===========  ALL OBJECTS IN CLASS: WALL:UNDERGROUND ===========

Wall:Underground,
    ,                        !- Name
    ,                        !- Construction Name
    ,                        !- Zone Name
    ,                        !- Space Name
    ,                        !- Azimuth Angle {deg}
    90;                      !- Tilt Angle {deg}


!-   ===========  ALL OBJECTS IN CLASS: WALL:INTERZONE ===========

Wall:Interzone,
    ,                        !- Name
    ,                        !- Construction Name
    ,                        !- Zone Name
    ,                        !- Space Name
    ,                        !- Outside Boundary Condition Object
    ,                        !- Azimuth Angle {deg}
    90;                      !- Tilt Angle {deg}


!-   ===========  ALL OBJECTS IN CLASS: ROOF ===========

Roof,
    ;                        !- Name


!-   ===========  ALL OBJECTS IN CLASS: CEILING:ADIABATIC ===========

Ceiling:Adiabatic,
    ;                        !- Name


!-   ===========  ALL OBJECTS IN CLASS: CEILING:INTERZONE ===========

Ceiling:Interzone,
    ;                        !- Name


!-   ===========  ALL OBJECTS IN CLASS: FLOOR:GROUNDCONTACT ===========

Floor:GroundContact,
    ,                        !- Name
    ,                        !- Construction Name
    ,                        !- Zone Name
    ,                        !- Space Name
    ,                        !- Azimuth Angle {deg}
    180;                     !- Tilt Angle {deg}


!-   ===========  ALL OBJECTS IN CLASS: FLOOR:ADIABATIC ===========

Floor:Adiabatic,
    ,                        !- Name
    ,                        !- Construction Name
    ,                        !- Zone Name
    ,                        !- Space Name
    ,                        !- Azimuth Angle {deg}
    180;                     !- Tilt Angle {deg}


!-   ===========  ALL OBJECTS IN CLASS: FLOOR:INTERZONE ===========

Floor:Interzone,
    ,                        !- Name
    ,                        !- Construction Name
    ,                        !- Zone Name
    ,                        !- Space Name
    ,                        !- Outside Boundary Condition Object
    ,                        !- Azimuth Angle {deg}
    180;                     !- Tilt Angle {deg}


!-   ===========  ALL OBJECTS IN CLASS: FENESTRATIONSURFACE:DETAILED ===========

FenestrationSurface:Detailed,
    ,                        !- Name
    ,                        !- Surface Type
    ,                        !- Construction Name
    ,                        !- Building Surface Name
    ,                        !- Outside Boundary Condition Object
    autocalculate,           !- View Factor to Ground
    ,                        !- Frame and Divider Name
    1,                       !- Multiplier
    autocalculate,           !- Number of Vertices
    ,                        !- Vertex 1 X-coordinate {m}
    ,                        !- Vertex 1 Y-coordinate {m}
    ,                        !- Vertex 1 Z-coordinate {m}
    ,                        !- Vertex 2 X-coordinate {m}
    ,                        !- Vertex 2 Y-coordinate {m}
    ,                        !- Vertex 2 Z-coordinate {m}
    ,                        !- Vertex 3 X-coordinate {m}
    ,                        !- Vertex 3 Y-coordinate {m}
    ;                        !- Vertex 3 Z-coordinate {m}


!-   ===========  ALL OBJECTS IN CLASS: WINDOW ===========

Window,
    ,                        !- Name
    ,                        !- Construction Name
    ,                        !- Building Surface Name
    ,                        !- Frame and Divider Name
    1;                       !- Multiplier


!-   ===========  ALL OBJECTS IN CLASS: DOOR ===========

Door,
    ,                        !- Name
    ,                        !- Construction Name
    ,                        !- Building Surface Name
    1;                       !- Multiplier


!-   ===========  ALL OBJECTS IN CLASS: GLAZEDDOOR ===========

GlazedDoor,
    ,                        !- Name
    ,                        !- Construction Name
    ,                        !- Building Surface Name
    ,                        !- Frame and Divider Name
    1;                       !- Multiplier


!-   ===========  ALL OBJECTS IN CLASS: WINDOW:INTERZONE ===========

Window:Interzone,
    ,                        !- Name
    ,                        !- Construction Name
    ,                        !- Building Surface Name
    ,                        !- Outside Boundary Condition Object
    1;                       !- Multiplier


!-   ===========  ALL OBJECTS IN CLASS: DOOR:INTERZONE ===========

Door:Interzone,
    ,                        !- Name
    ,                        !- Construction Name
    ,                        !- Building Surface Name
    ,                        !- Outside Boundary Condition Object
    1;                       !- Multiplier


!-   ===========  ALL OBJECTS IN CLASS: GLAZEDDOOR:INTERZONE ===========

GlazedDoor:Interzone,
    ,                        !- Name
    ,                        !- Construction Name
    ,                        !- Building Surface Name
    ,                        !- Outside Boundary Condition Object
    1;                       !- Multiplier


!-   ===========  ALL OBJECTS IN CLASS: WINDOWSHADINGCONTROL ===========

WindowShadingControl,
    ,                        !- Name
    ,                        !- Zone Name
    1,                       !- Shading Control Sequence Number
    ,                        !- Shading Type
    ,                        !- Construction with Shading Name
    ,                        !- Shading Control Type
    ,                        !- Schedule Name
    ,                        !- Setpoint {W/m2, W or deg C}
    No,                      !- Shading Control Is Scheduled
    No,                      !- Glare Control Is Active
    ,                        !- Shading Device Material Name
    FixedSlatAngle,          !- Type of Slat Angle Control for Blinds
    ,                        !- Slat Angle Schedule Name
    ,                        !- Setpoint 2 {W/m2 or deg C}
    ,                        !- Daylighting Control Object Name
    Sequential;              !- Multiple Surface Control Type


!-   ===========  ALL OBJECTS IN CLASS: WINDOWPROPERTY:FRAMEANDDIVIDER ===========

WindowProperty:FrameAndDivider,
    ,                        !- Name
    ,                        !- Frame Width {m}
    ,                        !- Frame Outside Projection {m}
    ,                        !- Frame Inside Projection {m}
    ,                        !- Frame Conductance {W/m2-K}
    1,                       !- Ratio of Frame-Edge Glass Conductance to Center-Of-Glass Conductance
    0.7,                     !- Frame Solar Absorptance
    0.7,                     !- Frame Visible Absorptance
    0.9,                     !- Frame Thermal Hemispherical Emissivity
    DividedLite,             !- Divider Type
    ,                        !- Divider Width {m}
    ,                        !- Number of Horizontal Dividers
    ,                        !- Number of Vertical Dividers
    ,                        !- Divider Outside Projection {m}
    ,                        !- Divider Inside Projection {m}
    ,                        !- Divider Conductance {W/m2-K}
    1,                       !- Ratio of Divider-Edge Glass Conductance to Center-Of-Glass Conductance
    ,                        !- Divider Solar Absorptance
    ,                        !- Divider Visible Absorptance
    0.9,                     !- Divider Thermal Hemispherical Emissivity
    ,                        !- Outside Reveal Solar Absorptance
    ,                        !- Inside Sill Depth {m}
    ,                        !- Inside Sill Solar Absorptance
    ,                        !- Inside Reveal Depth {m}
    ,                        !- Inside Reveal Solar Absorptance
    CurtainWall;             !- NFRC Product Type for Assembly Calculations


!-   ===========  ALL OBJECTS IN CLASS: WINDOWPROPERTY:AIRFLOWCONTROL ===========

WindowProperty:AirflowControl,
    ,                        !- Name
    IndoorAir,               !- Airflow Source
    OutdoorAir,              !- Airflow Destination
    ,                        !- Maximum Flow Rate {m3/s-m}
    AlwaysOnAtMaximumFlow,   !- Airflow Control Type
    No,                      !- Airflow Is Scheduled
    ;                        !- Airflow Multiplier Schedule Name


!-   ===========  ALL OBJECTS IN CLASS: WINDOWPROPERTY:STORMWINDOW ===========

WindowProperty:StormWindow,
    ,                        !- Window Name
    ,                        !- Storm Glass Layer Name
    0.05,                    !- Distance Between Storm Glass Layer and Adjacent Glass {m}
    ,                        !- Month that Storm Glass Layer is Put On
    ,                        !- Day of Month that Storm Glass Layer is Put On
    ,                        !- Month that Storm Glass Layer is Taken Off
    ;                        !- Day of Month that Storm Glass Layer is Taken Off


!-   ===========  ALL OBJECTS IN CLASS: INTERNALMASS ===========

InternalMass,
    ;                        !- Name


!-   ===========  ALL OBJECTS IN CLASS: SHADING:SITE ===========

Shading:Site,
    ,                        !- Name
    ,                        !- Azimuth Angle {deg}
    90;                      !- Tilt Angle {deg}


!-   ===========  ALL OBJECTS IN CLASS: SHADING:BUILDING ===========

Shading:Building,
    ,                        !- Name
    ,                        !- Azimuth Angle {deg}
    90;                      !- Tilt Angle {deg}


!-   ===========  ALL OBJECTS IN CLASS: SHADING:SITE:DETAILED ===========

Shading:Site:Detailed,
    ,                        !- Name
    ,                        !- Transmittance Schedule Name
    autocalculate,           !- Number of Vertices
    ,                        !- Vertex 1 X-coordinate {m}
    ,                        !- Vertex 1 Y-coordinate {m}
    ,                        !- Vertex 1 Z-coordinate {m}
    ,                        !- Vertex 2 X-coordinate {m}
    ,                        !- Vertex 2 Y-coordinate {m}
    ,                        !- Vertex 2 Z-coordinate {m}
    ,                        !- Vertex 3 X-coordinate {m}
    ,                        !- Vertex 3 Y-coordinate {m}
    ;                        !- Vertex 3 Z-coordinate {m}


!-   ===========  ALL OBJECTS IN CLASS: SHADING:BUILDING:DETAILED ===========

Shading:Building:Detailed,
    ,                        !- Name
    ,                        !- Transmittance Schedule Name
    autocalculate,           !- Number of Vertices
    ,                        !- Vertex 1 X-coordinate {m}
    ,                        !- Vertex 1 Y-coordinate {m}
    ,                        !- Vertex 1 Z-coordinate {m}
    ,                        !- Vertex 2 X-coordinate {m}
    ,                        !- Vertex 2 Y-coordinate {m}
    ,                        !- Vertex 2 Z-coordinate {m}
    ,                        !- Vertex 3 X-coordinate {m}
    ,                        !- Vertex 3 Y-coordinate {m}
    ;                        !- Vertex 3 Z-coordinate {m}


!-   ===========  ALL OBJECTS IN CLASS: SHADING:OVERHANG ===========

Shading:Overhang,
    ,                        !- Name
    ,                        !- Window or Door Name
    ,                        !- Height above Window or Door {m}
    90;                      !- Tilt Angle from Window/Door {deg}


!-   ===========  ALL OBJECTS IN CLASS: SHADING:OVERHANG:PROJECTION ===========

Shading:Overhang:Projection,
    ,                        !- Name
    ,                        !- Window or Door Name
    ,                        !- Height above Window or Door {m}
    90;                      !- Tilt Angle from Window/Door {deg}


!-   ===========  ALL OBJECTS IN CLASS: SHADING:FIN ===========

Shading:Fin,
    ,                        !- Name
    ,                        !- Window or Door Name
    ,                        !- Left Extension from Window/Door {m}
    ,                        !- Left Distance Above Top of Window {m}
    ,                        !- Left Distance Below Bottom of Window {m}
    90,                      !- Left Tilt Angle from Window/Door {deg}
    ,                        !- Left Depth {m}
    ,                        !- Right Extension from Window/Door {m}
    ,                        !- Right Distance Above Top of Window {m}
    ,                        !- Right Distance Below Bottom of Window {m}
    90;                      !- Right Tilt Angle from Window/Door {deg}


!-   ===========  ALL OBJECTS IN CLASS: SHADING:FIN:PROJECTION ===========

Shading:Fin:Projection,
    ,                        !- Name
    ,                        !- Window or Door Name
    ,                        !- Left Extension from Window/Door {m}
    ,                        !- Left Distance Above Top of Window {m}
    ,                        !- Left Distance Below Bottom of Window {m}
    90,                      !- Left Tilt Angle from Window/Door {deg}
    ,                        !- Left Depth as Fraction of Window/Door Width {dimensionless}
    ,                        !- Right Extension from Window/Door {m}
    ,                        !- Right Distance Above Top of Window {m}
    ,                        !- Right Distance Below Bottom of Window {m}
    90;                      !- Right Tilt Angle from Window/Door {deg}


!-   ===========  ALL OBJECTS IN CLASS: SHADING:ZONE:DETAILED ===========

Shading:Zone:Detailed,
    ,                        !- Name
    ,                        !- Base Surface Name
    ,                        !- Transmittance Schedule Name
    autocalculate,           !- Number of Vertices
    ,                        !- Vertex 1 X-coordinate {m}
    ,                        !- Vertex 1 Y-coordinate {m}
    ,                        !- Vertex 1 Z-coordinate {m}
    ,                        !- Vertex 2 X-coordinate {m}
    ,                        !- Vertex 2 Y-coordinate {m}
    ,                        !- Vertex 2 Z-coordinate {m}
    ,                        !- Vertex 3 X-coordinate {m}
    ,                        !- Vertex 3 Y-coordinate {m}
    ;                        !- Vertex 3 Z-coordinate {m}


!-   ===========  ALL OBJECTS IN CLASS: SHADINGPROPERTY:REFLECTANCE ===========

ShadingProperty:Reflectance,
    ,                        !- Shading Surface Name
    0.2,                     !- Diffuse Solar Reflectance of Unglazed Part of Shading Surface
    0.2;                     !- Diffuse Visible Reflectance of Unglazed Part of Shading Surface


!-   ===========  ALL OBJECTS IN CLASS: SURFACEPROPERTY:HEATTRANSFERALGORITHM ===========

SurfaceProperty:HeatTransferAlgorithm,
    ,                        !- Surface Name
    ConductionTransferFunction;  !- Algorithm


!-   ===========  ALL OBJECTS IN CLASS: SURFACEPROPERTY:HEATTRANSFERALGORITHM:MULTIPLESURFACE ===========

SurfaceProperty:HeatTransferAlgorithm:MultipleSurface,
    ,                        !- Name
    ,                        !- Surface Type
    ConductionTransferFunction;  !- Algorithm


!-   ===========  ALL OBJECTS IN CLASS: SURFACEPROPERTY:HEATTRANSFERALGORITHM:SURFACELIST ===========

SurfaceProperty:HeatTransferAlgorithm:SurfaceList,
    ,                        !- Name
    ConductionTransferFunction,  !- Algorithm
    ;                        !- Surface Name 1


!-   ===========  ALL OBJECTS IN CLASS: SURFACEPROPERTY:HEATTRANSFERALGORITHM:CONSTRUCTION ===========

SurfaceProperty:HeatTransferAlgorithm:Construction,
    ,                        !- Name
    ConductionTransferFunction,  !- Algorithm
    ;                        !- Construction Name


!-   ===========  ALL OBJECTS IN CLASS: SURFACEPROPERTY:HEATBALANCESOURCETERM ===========

SurfaceProperty:HeatBalanceSourceTerm,
    ,                        !- Surface Name
    ,                        !- Inside Face Heat Source Term Schedule Name
    ;                        !- Outside Face Heat Source Term Schedule Name


!-   ===========  ALL OBJECTS IN CLASS: SURFACECONTROL:MOVABLEINSULATION ===========

SurfaceControl:MovableInsulation,
    ;                        !- Insulation Type


!-   ===========  ALL OBJECTS IN CLASS: SURFACEPROPERTY:OTHERSIDECOEFFICIENTS ===========

SurfaceProperty:OtherSideCoefficients,
    ,                        !- Name
    ,                        !- Combined Convective/Radiative Film Coefficient {W/m2-K}
    ,                        !- Constant Temperature {C}
    1,                       !- Constant Temperature Coefficient
    ,                        !- External Dry-Bulb Temperature Coefficient
    ,                        !- Ground Temperature Coefficient
    ,                        !- Wind Speed Coefficient
    ,                        !- Zone Air Temperature Coefficient
    ,                        !- Constant Temperature Schedule Name
    No,                      !- Sinusoidal Variation of Constant Temperature Coefficient
    24;                      !- Period of Sinusoidal Variation {hr}


!-   ===========  ALL OBJECTS IN CLASS: SURFACEPROPERTY:OTHERSIDECONDITIONSMODEL ===========

SurfaceProperty:OtherSideConditionsModel,
    ,                        !- Name
    GapConvectionRadiation;  !- Type of Modeling


!-   ===========  ALL OBJECTS IN CLASS: SURFACEPROPERTY:UNDERWATER ===========

SurfaceProperty:Underwater,
    ,                        !- Name
    ,                        !- Distance from Surface Centroid to Leading Edge of Boundary Layer {m}
    ;                        !- Free Stream Water Temperature Schedule {C}


!-   ===========  ALL OBJECTS IN CLASS: FOUNDATION:KIVA ===========

Foundation:Kiva,
    ,                        !- Name
    ,                        !- Initial Indoor Air Temperature {C}
    ,                        !- Interior Horizontal Insulation Material Name
    ,                        !- Interior Horizontal Insulation Depth {m}
    ,                        !- Interior Horizontal Insulation Width {m}
    ,                        !- Interior Vertical Insulation Material Name
    ,                        !- Interior Vertical Insulation Depth {m}
    ,                        !- Exterior Horizontal Insulation Material Name
    ,                        !- Exterior Horizontal Insulation Depth {m}
    ,                        !- Exterior Horizontal Insulation Width {m}
    ,                        !- Exterior Vertical Insulation Material Name
    ,                        !- Exterior Vertical Insulation Depth {m}
    0.2,                     !- Wall Height Above Grade {m}
    ,                        !- Wall Depth Below Slab {m}
    ,                        !- Footing Wall Construction Name
    ,                        !- Footing Material Name
    0.3;                     !- Footing Depth {m}


!-   ===========  ALL OBJECTS IN CLASS: FOUNDATION:KIVA:SETTINGS ===========

Foundation:Kiva:Settings,
    1.73,                    !- Soil Conductivity {W/m-K}
    1842,                    !- Soil Density {kg/m3}
    419,                     !- Soil Specific Heat {J/kg-K}
    0.9,                     !- Ground Solar Absorptivity {dimensionless}
    0.9,                     !- Ground Thermal Absorptivity {dimensionless}
    0.03,                    !- Ground Surface Roughness {m}
    40,                      !- Far-Field Width {m}
    Autoselect,              !- Deep-Ground Boundary Condition
    autocalculate,           !- Deep-Ground Depth {m}
    0.02,                    !- Minimum Cell Dimension {m}
    1.5,                     !- Maximum Cell Growth Coefficient {dimensionless}
    Hourly;                  !- Simulation Timestep


!-   ===========  ALL OBJECTS IN CLASS: SURFACEPROPERTY:EXPOSEDFOUNDATIONPERIMETER ===========

SurfaceProperty:ExposedFoundationPerimeter,
    ,                        !- Surface Name
    ,                        !- Exposed Perimeter Calculation Method
    ,                        !- Total Exposed Perimeter {m}
    1,                       !- Exposed Perimeter Fraction {dimensionless}
    Yes;                     !- Surface Segment 1 Exposed


!-   ===========  ALL OBJECTS IN CLASS: SURFACECONVECTIONALGORITHM:INSIDE:ADAPTIVEMODELSELECTIONS ===========

SurfaceConvectionAlgorithm:Inside:AdaptiveModelSelections,
    ,                        !- Name
    FohannoPolidoriVerticalWall,  !- Simple Buoyancy Vertical Wall Equation Source
    ,                        !- Simple Buoyancy Vertical Wall User Curve Name
    AlamdariHammondStableHorizontal,  !- Simple Buoyancy Stable Horizontal Equation Source
    ,                        !- Simple Buoyancy Stable Horizontal Equation User Curve Name
    AlamdariHammondUnstableHorizontal,  !- Simple Buoyancy Unstable Horizontal Equation Source
    ,                        !- Simple Buoyancy Unstable Horizontal Equation User Curve Name
    WaltonStableHorizontalOrTilt,  !- Simple Buoyancy Stable Tilted Equation Source
    ,                        !- Simple Buoyancy Stable Tilted Equation User Curve Name
    WaltonUnstableHorizontalOrTilt,  !- Simple Buoyancy Unstable Tilted Equation Source
    ,                        !- Simple Buoyancy Unstable Tilted Equation User Curve Name
    ISO15099Windows,         !- Simple Buoyancy Windows Equation Source
    ,                        !- Simple Buoyancy Windows Equation User Curve Name
    KhalifaEq3WallAwayFromHeat,  !- Floor Heat Ceiling Cool Vertical Wall Equation Source
    ,                        !- Floor Heat Ceiling Cool Vertical Wall Equation User Curve Name
    AlamdariHammondStableHorizontal,  !- Floor Heat Ceiling Cool Stable Horizontal Equation Source
    ,                        !- Floor Heat Ceiling Cool Stable Horizontal Equation User Curve Name
    KhalifaEq4CeilingAwayFromHeat,  !- Floor Heat Ceiling Cool Unstable Horizontal Equation Source
    ,                        !- Floor Heat Ceiling Cool Unstable Horizontal Equation User Curve Name
    AwbiHattonHeatedFloor,   !- Floor Heat Ceiling Cool Heated Floor Equation Source
    ,                        !- Floor Heat Ceiling Cool Heated Floor Equation User Curve Name
    KaradagChilledCeiling,   !- Floor Heat Ceiling Cool Chilled Ceiling Equation Source
    ,                        !- Floor Heat Ceiling Cool Chilled Ceiling Equation User Curve Name
    WaltonStableHorizontalOrTilt,  !- Floor Heat Ceiling Cool Stable Tilted Equation Source
    ,                        !- Floor Heat Ceiling Cool Stable Tilted Equation User Curve Name
    WaltonUnstableHorizontalOrTilt,  !- Floor Heat Ceiling Cool Unstable Tilted Equation Source
    ,                        !- Floor Heat Ceiling Cool Unstable Tilted Equation User Curve Name
    ISO15099Windows,         !- Floor Heat Ceiling Cool Window Equation Source
    ,                        !- Floor Heat Ceiling Cool Window Equation User Curve Name
    KhalifaEq6NonHeatedWalls,!- Wall Panel Heating Vertical Wall Equation Source
    ,                        !- Wall Panel Heating Vertical Wall Equation User Curve Name
    AwbiHattonHeatedWall,    !- Wall Panel Heating Heated Wall Equation Source
    ,                        !- Wall Panel Heating Heated Wall Equation User Curve Name
    AlamdariHammondStableHorizontal,  !- Wall Panel Heating Stable Horizontal Equation Source
    ,                        !- Wall Panel Heating Stable Horizontal Equation User Curve Name
    KhalifaEq7Ceiling,       !- Wall Panel Heating Unstable Horizontal Equation Source
    ,                        !- Wall Panel Heating Unstable Horizontal Equation User Curve Name
    WaltonStableHorizontalOrTilt,  !- Wall Panel Heating Stable Tilted Equation Source
    ,                        !- Wall Panel Heating Stable Tilted Equation User Curve Name
    WaltonUnstableHorizontalOrTilt,  !- Wall Panel Heating Unstable Tilted Equation Source
    ,                        !- Wall Panel Heating Unstable Tilted Equation User Curve Name
    ISO15099Windows,         !- Wall Panel Heating Window Equation Source
    ,                        !- Wall Panel Heating Window Equation User Curve Name
    FohannoPolidoriVerticalWall,  !- Convective Zone Heater Vertical Wall Equation Source
    ,                        !- Convective Zone Heater Vertical Wall Equation User Curve Name
    KhalifaEq5WallNearHeat,  !- Convective Zone Heater Vertical Walls Near Heater Equation Source
    ,                        !- Convective Zone Heater Vertical Walls Near Heater Equation User Curve Name
    AlamdariHammondStableHorizontal,  !- Convective Zone Heater Stable Horizontal Equation Source
    ,                        !- Convective Zone Heater Stable Horizontal Equation User Curve Name
    KhalifaEq7Ceiling,       !- Convective Zone Heater Unstable Horizontal Equation Source
    ,                        !- Convective Zone Heater Unstable Horizontal Equation User Curve Name
    WaltonStableHorizontalOrTilt,  !- Convective Zone Heater Stable Tilted Equation Source
    ,                        !- Convective Zone Heater Stable Tilted Equation User Curve Name
    WaltonUnstableHorizontalOrTilt,  !- Convective Zone Heater Unstable Tilted Equation Source
    ,                        !- Convective Zone Heater Unstable Tilted Equation User Curve Name
    ISO15099Windows,         !- Convective Zone Heater Windows Equation Source
    ,                        !- Convective Zone Heater Windows Equation User Curve Name
    GoldsteinNovoselacCeilingDiffuserWalls,  !- Central Air Diffuser Wall Equation Source
    ,                        !- Central Air Diffuser Wall Equation User Curve Name
    FisherPedersenCeilingDiffuserCeiling,  !- Central Air Diffuser Ceiling Equation Source
    ,                        !- Central Air Diffuser Ceiling Equation User Curve Name
    GoldsteinNovoselacCeilingDiffuserFloor,  !- Central Air Diffuser Floor Equation Source
    ,                        !- Central Air Diffuser Floor Equation User Curve Name
    GoldsteinNovoselacCeilingDiffuserWindow,  !- Central Air Diffuser Window Equation Source
    ,                        !- Central Air Diffuser Window Equation User Curve Name
    KhalifaEq3WallAwayFromHeat,  !- Mechanical Zone Fan Circulation Vertical Wall Equation Source
    ,                        !- Mechanical Zone Fan Circulation Vertical Wall Equation User Curve Name
    AlamdariHammondStableHorizontal,  !- Mechanical Zone Fan Circulation Stable Horizontal Equation Source
    ,                        !- Mechanical Zone Fan Circulation Stable Horizontal Equation User Curve Name
    KhalifaEq4CeilingAwayFromHeat,  !- Mechanical Zone Fan Circulation Unstable Horizontal Equation Source
    ,                        !- Mechanical Zone Fan Circulation Unstable Horizontal Equation User Curve Name
    WaltonStableHorizontalOrTilt,  !- Mechanical Zone Fan Circulation Stable Tilted Equation Source
    ,                        !- Mechanical Zone Fan Circulation Stable Tilted Equation User Curve Name
    WaltonUnstableHorizontalOrTilt,  !- Mechanical Zone Fan Circulation Unstable Tilted Equation Source
    ,                        !- Mechanical Zone Fan Circulation Unstable Tilted Equation User Curve Name
    ISO15099Windows,         !- Mechanical Zone Fan Circulation Window Equation Source
    ,                        !- Mechanical Zone Fan Circulation Window Equation User Curve Name
    BeausoleilMorrisonMixedAssistedWall,  !- Mixed Regime Buoyancy Assisting Flow on Walls Equation Source
    ,                        !- Mixed Regime Buoyancy Assisting Flow on Walls Equation User Curve Name
    BeausoleilMorrisonMixedOpposingWall,  !- Mixed Regime Buoyancy Opposing Flow on Walls Equation Source
    ,                        !- Mixed Regime Buoyancy Opposing Flow on Walls Equation User Curve Name
    BeausoleilMorrisonMixedStableFloor,  !- Mixed Regime Stable Floor Equation Source
    ,                        !- Mixed Regime Stable Floor Equation User Curve Name
    BeausoleilMorrisonMixedUnstableFloor,  !- Mixed Regime Unstable Floor Equation Source
    ,                        !- Mixed Regime Unstable Floor Equation User Curve Name
    BeausoleilMorrisonMixedStableCeiling,  !- Mixed Regime Stable Ceiling Equation Source
    ,                        !- Mixed Regime Stable Ceiling Equation User Curve Name
    BeausoleilMorrisonMixedUnstableCeiling,  !- Mixed Regime Unstable Ceiling Equation Source
    ,                        !- Mixed Regime Unstable Ceiling Equation User Curve Name
    GoldsteinNovoselacCeilingDiffuserWindow,  !- Mixed Regime Window Equation Source
    ;                        !- Mixed Regime Window Equation User Curve Name


!-   ===========  ALL OBJECTS IN CLASS: SURFACECONVECTIONALGORITHM:OUTSIDE:ADAPTIVEMODELSELECTIONS ===========

SurfaceConvectionAlgorithm:Outside:AdaptiveModelSelections,
    ,                        !- Name
    TARPWindward,            !- Wind Convection Windward Vertical Wall Equation Source
    ,                        !- Wind Convection Windward Equation Vertical Wall User Curve Name
    TARPLeeward,             !- Wind Convection Leeward Vertical Wall Equation Source
    ,                        !- Wind Convection Leeward Vertical Wall Equation User Curve Name
    ClearRoof,               !- Wind Convection Horizontal Roof Equation Source
    ,                        !- Wind Convection Horizontal Roof User Curve Name
    ASHRAEVerticalWall,      !- Natural Convection Vertical Wall Equation Source
    ,                        !- Natural Convection Vertical Wall Equation User Curve Name
    WaltonStableHorizontalOrTilt,  !- Natural Convection Stable Horizontal Equation Source
    ,                        !- Natural Convection Stable Horizontal Equation User Curve Name
    WaltonUnstableHorizontalOrTilt,  !- Natural Convection Unstable Horizontal Equation Source
    ;                        !- Natural Convection Unstable Horizontal Equation User Curve Name


!-   ===========  ALL OBJECTS IN CLASS: SURFACECONVECTIONALGORITHM:INSIDE:USERCURVE ===========

SurfaceConvectionAlgorithm:Inside:UserCurve,
    ;                        !- Name


!-   ===========  ALL OBJECTS IN CLASS: SURFACECONVECTIONALGORITHM:OUTSIDE:USERCURVE ===========

SurfaceConvectionAlgorithm:Outside:UserCurve,
    ,                        !- Name
    HeightAdjust;            !- Wind Speed Type for Curve


!-   ===========  ALL OBJECTS IN CLASS: SURFACEPROPERTY:CONVECTIONCOEFFICIENTS ===========

SurfaceProperty:ConvectionCoefficients,
    ,                        !- Surface Name
    ,                        !- Convection Coefficient 1 Location
    ,                        !- Convection Coefficient 1 Type
    ,                        !- Convection Coefficient 1 {W/m2-K}
    ,                        !- Convection Coefficient 1 Schedule Name
    ,                        !- Convection Coefficient 1 User Curve Name
    ,                        !- Convection Coefficient 2 Location
    ,                        !- Convection Coefficient 2 Type
    0.1;                     !- Convection Coefficient 2 {W/m2-K}


!-   ===========  ALL OBJECTS IN CLASS: SURFACEPROPERTY:CONVECTIONCOEFFICIENTS:MULTIPLESURFACE ===========

SurfaceProperty:ConvectionCoefficients:MultipleSurface,
    ,                        !- Surface Type
    ,                        !- Convection Coefficient 1 Location
    ,                        !- Convection Coefficient 1 Type
    ,                        !- Convection Coefficient 1 {W/m2-K}
    ,                        !- Convection Coefficient 1 Schedule Name
    ,                        !- Convection Coefficient 1 User Curve Name
    ,                        !- Convection Coefficient 2 Location
    ,                        !- Convection Coefficient 2 Type
    0.1;                     !- Convection Coefficient 2 {W/m2-K}


!-   ===========  ALL OBJECTS IN CLASS: SURFACEPROPERTIES:VAPORCOEFFICIENTS ===========

SurfaceProperties:VaporCoefficients,
    ,                        !- Surface Name
    No,                      !- Constant External Vapor Transfer Coefficient
    ,                        !- External Vapor Coefficient Value {kg/Pa-s-m2}
    No;                      !- Constant Internal vapor Transfer Coefficient


!-   ===========  ALL OBJECTS IN CLASS: SURFACEPROPERTY:EXTERIORNATURALVENTEDCAVITY ===========

SurfaceProperty:ExteriorNaturalVentedCavity,
    ,                        !- Name
    ,                        !- Boundary Conditions Model Name
    ,                        !- Area Fraction of Openings {dimensionless}
    ,                        !- Thermal Emissivity of Exterior Baffle Material {dimensionless}
    ,                        !- Solar Absorbtivity of Exterior Baffle {dimensionless}
    ,                        !- Height Scale for Buoyancy-Driven Ventilation {m}
    ,                        !- Effective Thickness of Cavity Behind Exterior Baffle {m}
    1,                       !- Ratio of Actual Surface Area to Projected Surface Area {dimensionless}
    ,                        !- Roughness of Exterior Surface
    0.25,                    !- Effectiveness for Perforations with Respect to Wind {dimensionless}
    0.65;                    !- Discharge Coefficient for Openings with Respect to Buoyancy Driven Flow {dimensionless}


!-   ===========  ALL OBJECTS IN CLASS: SURFACEPROPERTY:SOLARINCIDENTINSIDE ===========

SurfaceProperty:SolarIncidentInside,
    ;                        !- Name


!-   ===========  ALL OBJECTS IN CLASS: SURFACEPROPERTY:LOCALENVIRONMENT ===========

SurfaceProperty:LocalEnvironment,
    ,                        !- Name
    ,                        !- Exterior Surface Name
    ;                        !- External Shading Fraction Schedule Name


!-   ===========  ALL OBJECTS IN CLASS: ZONEPROPERTY:LOCALENVIRONMENT ===========

ZoneProperty:LocalEnvironment,
    ,                        !- Name
    ,                        !- Zone Name
    ;                        !- Outdoor Air Node Name


!-   ===========  ALL OBJECTS IN CLASS: SURFACEPROPERTY:SURROUNDINGSURFACES ===========

SurfaceProperty:SurroundingSurfaces,
    ,                        !- Name
    0.5,                     !- Sky View Factor
    ,                        !- Sky Temperature Schedule Name
    0.5,                     !- Ground View Factor
    ,                        !- Ground Temperature Schedule Name
    ,                        !- Surrounding Surface 1 Name
    ,                        !- Surrounding Surface 1 View Factor
    ;                        !- Surrounding Surface 1 Temperature Schedule Name


!-   ===========  ALL OBJECTS IN CLASS: COMPLEXFENESTRATIONPROPERTY:SOLARABSORBEDLAYERS ===========

ComplexFenestrationProperty:SolarAbsorbedLayers,
    ;                        !- Name


!-   ===========  ALL OBJECTS IN CLASS: ZONEPROPERTY:USERVIEWFACTORS:BYSURFACENAME ===========

ZoneProperty:UserViewFactors:BySurfaceName,
    ;                        !- Zone or ZoneList or Space or SpaceList Name


!-   ===========  ALL OBJECTS IN CLASS: GROUNDHEATTRANSFER:CONTROL ===========

GroundHeatTransfer:Control,
    ,                        !- Name
    No,                      !- Run Basement Preprocessor
    No;                      !- Run Slab Preprocessor


!-   ===========  ALL OBJECTS IN CLASS: GROUNDHEATTRANSFER:SLAB:MATERIALS ===========

GroundHeatTransfer:Slab:Materials,
    ,                        !- NMAT: Number of materials
    0.16,                    !- ALBEDO: Surface Albedo: No Snow
    0.4,                     !- ALBEDO: Surface Albedo: Snow
    0.94,                    !- EPSLW: Surface Emissivity: No Snow
    0.86,                    !- EPSLW: Surface Emissivity: Snow
    0.75,                    !- Z0: Surface Roughness: No Snow {cm}
    0.25,                    !- Z0: Surface Roughness: Snow {cm}
    6.13,                    !- HIN: Indoor HConv: Downward Flow {W/m2-K}
    9.26;                    !- HIN: Indoor HConv: Upward {W/m2-K}


!-   ===========  ALL OBJECTS IN CLASS: GROUNDHEATTRANSFER:SLAB:MATLPROPS ===========

GroundHeatTransfer:Slab:MatlProps,
    2300,                    !- RHO: Slab Material density {kg/m3}
    1200,                    !- RHO: Soil Density {kg/m3}
    650,                     !- CP: Slab CP {J/kg-K}
    1200,                    !- CP: Soil CP {J/kg-K}
    0.9,                     !- TCON: Slab k {W/m-K}
    1;                       !- TCON: Soil k {W/m-K}


!-   ===========  ALL OBJECTS IN CLASS: GROUNDHEATTRANSFER:SLAB:BOUNDCONDS ===========

GroundHeatTransfer:Slab:BoundConds,
    ;                        !- EVTR: Is surface evapotranspiration modeled


!-   ===========  ALL OBJECTS IN CLASS: GROUNDHEATTRANSFER:SLAB:BLDGPROPS ===========

GroundHeatTransfer:Slab:BldgProps,
    10,                      !- IYRS: Number of years to iterate
    ,                        !- Shape: Slab shape
    ,                        !- HBLDG: Building height {m}
    22,                      !- TIN1: January Indoor Average Temperature Setpoint {C}
    22,                      !- TIN2: February Indoor Average Temperature Setpoint {C}
    22,                      !- TIN3: March Indoor Average Temperature Setpoint {C}
    22,                      !- TIN4: April Indoor Average Temperature Setpoint {C}
    22,                      !- TIN5: May Indoor Average Temperature Setpoint {C}
    22,                      !- TIN6: June Indoor Average Temperature Setpoint {C}
    22,                      !- TIN7: July Indoor Average Temperature Setpoint {C}
    22,                      !- TIN8: August Indoor Average Temperature Setpoint {C}
    22,                      !- TIN9: September Indoor Average Temperature Setpoint {C}
    22,                      !- TIN10: October Indoor Average Temperature Setpoint {C}
    22,                      !- TIN11: November Indoor Average Temperature Setpoint {C}
    22,                      !- TIN12: December Indoor Average Temperature Setpoint {C}
    ,                        !- TINAmp: Daily Indoor sine wave variation amplitude {deltaC}
    0.1;                     !- ConvTol: Convergence Tolerance


!-   ===========  ALL OBJECTS IN CLASS: GROUNDHEATTRANSFER:SLAB:INSULATION ===========

GroundHeatTransfer:Slab:Insulation,
    ,                        !- RINS: R value of under slab insulation {m2-K/W}
    ,                        !- DINS: Width of strip of under slab insulation {m}
    ,                        !- RVINS: R value of vertical insulation {m2-K/W}
    ,                        !- ZVINS: Depth of vertical insulation {m}
    ;                        !- IVINS: Flag: Is there vertical insulation


!-   ===========  ALL OBJECTS IN CLASS: GROUNDHEATTRANSFER:SLAB:EQUIVALENTSLAB ===========

GroundHeatTransfer:Slab:EquivalentSlab,
    ,                        !- APRatio: The area to perimeter ratio for this slab {m}
    0.1,                     !- SLABDEPTH: Thickness of slab on grade {m}
    15,                      !- CLEARANCE: Distance from edge of slab to domain edge {m}
    15;                      !- ZCLEARANCE: Distance from bottom of slab to domain bottom {m}


!-   ===========  ALL OBJECTS IN CLASS: GROUNDHEATTRANSFER:SLAB:AUTOGRID ===========

GroundHeatTransfer:Slab:AutoGrid,
    ,                        !- SLABX: X dimension of the building slab {m}
    ,                        !- SLABY: Y dimension of the building slab {m}
    0.1,                     !- SLABDEPTH: Thickness of slab on grade {m}
    15,                      !- CLEARANCE: Distance from edge of slab to domain edge {m}
    15;                      !- ZCLEARANCE: Distance from bottom of slab to domain bottom {m}


!-   ===========  ALL OBJECTS IN CLASS: GROUNDHEATTRANSFER:SLAB:MANUALGRID ===========

GroundHeatTransfer:Slab:ManualGrid,
    ;                        !- NX: Number of cells in the X direction


!-   ===========  ALL OBJECTS IN CLASS: GROUNDHEATTRANSFER:SLAB:XFACE ===========

GroundHeatTransfer:Slab:XFACE,
    ;                        !- N1


!-   ===========  ALL OBJECTS IN CLASS: GROUNDHEATTRANSFER:SLAB:YFACE ===========

GroundHeatTransfer:Slab:YFACE,
    ;                        !- N1


!-   ===========  ALL OBJECTS IN CLASS: GROUNDHEATTRANSFER:SLAB:ZFACE ===========

GroundHeatTransfer:Slab:ZFACE,
    ;                        !- N1


!-   ===========  ALL OBJECTS IN CLASS: GROUNDHEATTRANSFER:BASEMENT:SIMPARAMETERS ===========

GroundHeatTransfer:Basement:SimParameters,
    ,                        !- F: Multiplier for the ADI solution
    15;                      !- IYRS: Maximum number of yearly iterations:


!-   ===========  ALL OBJECTS IN CLASS: GROUNDHEATTRANSFER:BASEMENT:MATLPROPS ===========

GroundHeatTransfer:Basement:MatlProps,
    ,                        !- NMAT: Number of materials in this domain
    2243,                    !- Density for Foundation Wall {kg/m3}
    2243,                    !- density for Floor Slab {kg/m3}
    311,                     !- density for Ceiling {kg/m3}
    1500,                    !- density for Soil {kg/m3}
    2000,                    !- density for Gravel {kg/m3}
    449,                     !- density for Wood {kg/m3}
    880,                     !- Specific heat for foundation wall {J/kg-K}
    880,                     !- Specific heat for floor slab {J/kg-K}
    1530,                    !- Specific heat for ceiling {J/kg-K}
    840,                     !- Specific heat for soil {J/kg-K}
    720,                     !- Specific heat for gravel {J/kg-K}
    1530,                    !- Specific heat for wood {J/kg-K}
    1.4,                     !- Thermal conductivity for foundation wall {W/m-K}
    1.4,                     !- Thermal conductivity for floor slab {W/m-K}
    0.09,                    !- Thermal conductivity for ceiling {W/m-K}
    1.1,                     !- thermal conductivity for soil {W/m-K}
    1.9,                     !- thermal conductivity for gravel {W/m-K}
    0.12;                    !- thermal conductivity for wood {W/m-K}


!-   ===========  ALL OBJECTS IN CLASS: GROUNDHEATTRANSFER:BASEMENT:INSULATION ===========

GroundHeatTransfer:Basement:Insulation,
    ;                        !- REXT: R Value of any exterior insulation {m2-K/W}


!-   ===========  ALL OBJECTS IN CLASS: GROUNDHEATTRANSFER:BASEMENT:SURFACEPROPS ===========

GroundHeatTransfer:Basement:SurfaceProps,
    0.16,                    !- ALBEDO: Surface albedo for No snow conditions
    0.4,                     !- ALBEDO: Surface albedo for snow conditions
    0.94,                    !- EPSLN: Surface emissivity No Snow
    0.86,                    !- EPSLN: Surface emissivity with Snow
    6,                       !- VEGHT: Surface roughness No snow conditions {cm}
    0.25,                    !- VEGHT: Surface roughness Snow conditions {cm}
    FALSE;                   !- PET: Flag, Potential evapotranspiration on?


!-   ===========  ALL OBJECTS IN CLASS: GROUNDHEATTRANSFER:BASEMENT:BLDGDATA ===========

GroundHeatTransfer:Basement:BldgData,
    0.2,                     !- DWALL: Wall thickness {m}
    0.1,                     !- DSLAB: Floor slab thickness {m}
    0.3,                     !- DGRAVXY: Width of gravel pit beside basement wall {m}
    0.2,                     !- DGRAVZN: Gravel depth extending above the floor slab {m}
    0.1;                     !- DGRAVZP: Gravel depth below the floor slab {m}


!-   ===========  ALL OBJECTS IN CLASS: GROUNDHEATTRANSFER:BASEMENT:INTERIOR ===========

GroundHeatTransfer:Basement:Interior,
    TRUE,                    !- COND: Flag: Is the basement conditioned?
    0.92,                    !- HIN: Downward convection only heat transfer coefficient {W/m2-K}
    4.04,                    !- HIN: Upward convection only heat transfer coefficient {W/m2-K}
    3.08,                    !- HIN: Horizontal convection only heat transfer coefficient {W/m2-K}
    6.13,                    !- HIN: Downward combined (convection and radiation) heat transfer coefficient {W/m2-K}
    9.26,                    !- HIN: Upward combined (convection and radiation) heat transfer coefficient {W/m2-K}
    8.29;                    !- HIN: Horizontal combined (convection and radiation) heat transfer coefficient {W/m2-K}


!-   ===========  ALL OBJECTS IN CLASS: GROUNDHEATTRANSFER:BASEMENT:COMBLDG ===========

GroundHeatTransfer:Basement:ComBldg,
    22,                      !- January average temperature {C}
    22,                      !- February average temperature {C}
    22,                      !- March average temperature {C}
    22,                      !- April average temperature {C}
    22,                      !- May average temperature {C}
    22,                      !- June average temperature {C}
    22,                      !- July average temperature {C}
    22,                      !- August average temperature {C}
    22,                      !- September average temperature {C}
    22,                      !- October average temperature {C}
    22,                      !- November average temperature {C}
    22;                      !- December average temperature {C}


!-   ===========  ALL OBJECTS IN CLASS: GROUNDHEATTRANSFER:BASEMENT:EQUIVSLAB ===========

GroundHeatTransfer:Basement:EquivSlab,
    ;                        !- APRatio: The area to perimeter ratio for this slab {m}


!-   ===========  ALL OBJECTS IN CLASS: GROUNDHEATTRANSFER:BASEMENT:EQUIVAUTOGRID ===========

GroundHeatTransfer:Basement:EquivAutoGrid,
    15,                      !- CLEARANCE: Distance from outside of wall to edge of 3-D ground domain {m}
    0.1,                     !- SlabDepth: Thickness of the floor slab {m}
    2;                       !- BaseDepth: Depth of the basement wall below grade {m}


!-   ===========  ALL OBJECTS IN CLASS: GROUNDHEATTRANSFER:BASEMENT:AUTOGRID ===========

GroundHeatTransfer:Basement:AutoGrid,
    15,                      !- CLEARANCE: Distance from outside of wall to edge, {m}
    ,                        !- SLABX: X dimension of the building slab {m}
    ,                        !- SLABY: Y dimension of the building slab {m}
    ,                        !- ConcAGHeight: Height of the foundation wall above grade {m}
    0.1,                     !- SlabDepth: Thickness of the floor slab {m}
    2;                       !- BaseDepth: Depth of the basement wall below grade {m}


!-   ===========  ALL OBJECTS IN CLASS: GROUNDHEATTRANSFER:BASEMENT:MANUALGRID ===========

GroundHeatTransfer:Basement:ManualGrid,
    ;                        !- NX: Number of cells in the X direction: 20]


!-   ===========  ALL OBJECTS IN CLASS: GROUNDHEATTRANSFER:BASEMENT:XFACE ===========

GroundHeatTransfer:Basement:XFACE,
    ;                        !- N1


!-   ===========  ALL OBJECTS IN CLASS: GROUNDHEATTRANSFER:BASEMENT:YFACE ===========

GroundHeatTransfer:Basement:YFACE,
    ;                        !- N1


!-   ===========  ALL OBJECTS IN CLASS: GROUNDHEATTRANSFER:BASEMENT:ZFACE ===========

GroundHeatTransfer:Basement:ZFACE,
    ;                        !- N1


!-   ===========  ALL OBJECTS IN CLASS: ROOMAIRMODELTYPE ===========

RoomAirModelType,
    ,                        !- Name
    ,                        !- Zone Name
    Mixing,                  !- Room-Air Modeling Type
    Direct;                  !- Air Temperature Coupling Strategy


!-   ===========  ALL OBJECTS IN CLASS: ROOMAIR:TEMPERATUREPATTERN:USERDEFINED ===========

RoomAir:TemperaturePattern:UserDefined,
    ;                        !- Name


!-   ===========  ALL OBJECTS IN CLASS: ROOMAIR:TEMPERATUREPATTERN:CONSTANTGRADIENT ===========

RoomAir:TemperaturePattern:ConstantGradient,
    ;                        !- Room Air Temperature Pattern Constant Gradient Name


!-   ===========  ALL OBJECTS IN CLASS: ROOMAIR:TEMPERATUREPATTERN:TWOGRADIENT ===========

RoomAir:TemperaturePattern:TwoGradient,
    ;                        !- Room Air Temperature Pattern Two Gradient Name


!-   ===========  ALL OBJECTS IN CLASS: ROOMAIR:TEMPERATUREPATTERN:NONDIMENSIONALHEIGHT ===========

RoomAir:TemperaturePattern:NondimensionalHeight,
    ;                        !- Name


!-   ===========  ALL OBJECTS IN CLASS: ROOMAIR:TEMPERATUREPATTERN:SURFACEMAPPING ===========

RoomAir:TemperaturePattern:SurfaceMapping,
    ;                        !- Name


!-   ===========  ALL OBJECTS IN CLASS: ROOMAIR:NODE ===========

RoomAir:Node,
    ;                        !- Name


!-   ===========  ALL OBJECTS IN CLASS: ROOMAIRSETTINGS:ONENODEDISPLACEMENTVENTILATION ===========

RoomAirSettings:OneNodeDisplacementVentilation,
    ;                        !- Zone Name


!-   ===========  ALL OBJECTS IN CLASS: ROOMAIRSETTINGS:THREENODEDISPLACEMENTVENTILATION ===========

RoomAirSettings:ThreeNodeDisplacementVentilation,
    ,                        !- Zone Name
    ,                        !- Gain Distribution Schedule Name
    1,                       !- Number of Plumes per Occupant
    1.1,                     !- Thermostat Height {m}
    1.1,                     !- Comfort Height {m}
    0.4;                     !- Temperature Difference Threshold for Reporting {deltaC}


!-   ===========  ALL OBJECTS IN CLASS: ROOMAIRSETTINGS:CROSSVENTILATION ===========

RoomAirSettings:CrossVentilation,
    ;                        !- Zone Name


!-   ===========  ALL OBJECTS IN CLASS: ROOMAIRSETTINGS:UNDERFLOORAIRDISTRIBUTIONINTERIOR ===========

RoomAirSettings:UnderFloorAirDistributionInterior,
    ,                        !- Zone Name
    autocalculate,           !- Number of Diffusers
    autocalculate,           !- Power per Plume {W}
    autocalculate,           !- Design Effective Area of Diffuser {m2}
    autocalculate,           !- Diffuser Slot Angle from Vertical {deg}
    1.2,                     !- Thermostat Height {m}
    1.1,                     !- Comfort Height {m}
    0.4,                     !- Temperature Difference Threshold for Reporting {deltaC}
    Swirl,                   !- Floor Diffuser Type
    1.7,                     !- Transition Height {m}
    autocalculate,           !- Coefficient A
    autocalculate,           !- Coefficient B
    autocalculate,           !- Coefficient C
    autocalculate,           !- Coefficient D
    autocalculate;           !- Coefficient E


!-   ===========  ALL OBJECTS IN CLASS: ROOMAIRSETTINGS:UNDERFLOORAIRDISTRIBUTIONEXTERIOR ===========

RoomAirSettings:UnderFloorAirDistributionExterior,
    ,                        !- Zone Name
    autocalculate,           !- Number of Diffusers per Zone
    autocalculate,           !- Power per Plume {W}
    autocalculate,           !- Design Effective Area of Diffuser {m2}
    autocalculate,           !- Diffuser Slot Angle from Vertical {deg}
    1.2,                     !- Thermostat Height {m}
    1.1,                     !- Comfort Height {m}
    0.4,                     !- Temperature Difference Threshold for Reporting {deltaC}
    Swirl,                   !- Floor Diffuser Type
    1.7,                     !- Transition Height {m}
    autocalculate,           !- Coefficient A in formula Kc = A*Gamma**B + C + D*Gamma + E*Gamma**2
    autocalculate,           !- Coefficient B in formula Kc = A*Gamma**B + C + D*Gamma + E*Gamma**2
    autocalculate,           !- Coefficient C in formula Kc = A*Gamma**B + C + D*Gamma + E*Gamma**2
    autocalculate,           !- Coefficient D in formula Kc = A*Gamma**B + C + D*Gamma + E*Gamma**2
    autocalculate;           !- Coefficient E in formula Kc = A*Gamma**B + C + D*Gamma + E*Gamma**2


!-   ===========  ALL OBJECTS IN CLASS: ROOMAIR:NODE:AIRFLOWNETWORK ===========

RoomAir:Node:AirflowNetwork,
    ;                        !- Name


!-   ===========  ALL OBJECTS IN CLASS: ROOMAIR:NODE:AIRFLOWNETWORK:ADJACENTSURFACELIST ===========

RoomAir:Node:AirflowNetwork:AdjacentSurfaceList,
    ,                        !- Name
    ;                        !- Surface 1 Name


!-   ===========  ALL OBJECTS IN CLASS: ROOMAIR:NODE:AIRFLOWNETWORK:INTERNALGAINS ===========

RoomAir:Node:AirflowNetwork:InternalGains,
    ,                        !- Name
    ,                        !- Internal Gain Object 1 Type
    ,                        !- Internal Gain Object 1 Name
    ;                        !- Fraction of Gains to Node 1


!-   ===========  ALL OBJECTS IN CLASS: ROOMAIR:NODE:AIRFLOWNETWORK:HVACEQUIPMENT ===========

RoomAir:Node:AirflowNetwork:HVACEquipment,
    ;                        !- Name


!-   ===========  ALL OBJECTS IN CLASS: ROOMAIRSETTINGS:AIRFLOWNETWORK ===========

RoomAirSettings:AirflowNetwork,
    ,                        !- Name
    ,                        !- Zone Name
    ,                        !- Control Point RoomAirflowNetwork:Node Name
    ,                        !- RoomAirflowNetwork:Node Name 1
    ;                        !- RoomAirflowNetwork:Node Name 2


!-   ===========  ALL OBJECTS IN CLASS: PEOPLE ===========

People,
    ,                        !- Name
    ,                        !- Zone or ZoneList or Space or SpaceList Name
    ,                        !- Number of People Schedule Name
    People,                  !- Number of People Calculation Method
    ,                        !- Number of People
    ,                        !- People per Floor Area {person/m2}
    ,                        !- Floor Area per Person {m2/person}
    0.3,                     !- Fraction Radiant
    autocalculate,           !- Sensible Heat Fraction
    ,                        !- Activity Level Schedule Name
    0.0000000382,            !- Carbon Dioxide Generation Rate {m3/s-W}
    No,                      !- Enable ASHRAE 55 Comfort Warnings
    ZoneAveraged,            !- Mean Radiant Temperature Calculation Type
    ,                        !- Surface Name/Angle Factor List Name
    ,                        !- Work Efficiency Schedule Name
    ClothingInsulationSchedule;  !- Clothing Insulation Calculation Method


!-   ===========  ALL OBJECTS IN CLASS: COMFORTVIEWFACTORANGLES ===========

ComfortViewFactorAngles,
    ;                        !- Name


!-   ===========  ALL OBJECTS IN CLASS: LIGHTS ===========

Lights,
    ,                        !- Name
    ,                        !- Zone or ZoneList or Space or SpaceList Name
    ,                        !- Schedule Name
    LightingLevel,           !- Design Level Calculation Method
    ,                        !- Lighting Level {W}
    ,                        !- Watts per Zone Floor Area {W/m2}
    ,                        !- Watts per Person {W/person}
    ,                        !- Return Air Fraction
    ,                        !- Fraction Radiant
    ,                        !- Fraction Visible
    1,                       !- Fraction Replaceable
    General,                 !- End-Use Subcategory
    No;                      !- Return Air Fraction Calculated from Plenum Temperature


!-   ===========  ALL OBJECTS IN CLASS: ELECTRICEQUIPMENT ===========

ElectricEquipment,
    ,                        !- Name
    ,                        !- Zone or ZoneList or Space or SpaceList Name
    ,                        !- Schedule Name
    EquipmentLevel,          !- Design Level Calculation Method
    ,                        !- Design Level {W}
    ,                        !- Watts per Zone Floor Area {W/m2}
    ,                        !- Watts per Person {W/person}
    ,                        !- Fraction Latent
    ,                        !- Fraction Radiant
    ,                        !- Fraction Lost
    General;                 !- End-Use Subcategory


!-   ===========  ALL OBJECTS IN CLASS: GASEQUIPMENT ===========

GasEquipment,
    ,                        !- Name
    ,                        !- Zone or ZoneList or Space or SpaceList Name
    ,                        !- Schedule Name
    EquipmentLevel,          !- Design Level Calculation Method
    ,                        !- Design Level {W}
    ,                        !- Power per Zone Floor Area {W/m2}
    ,                        !- Power per Person {W/person}
    ,                        !- Fraction Latent
    ,                        !- Fraction Radiant
    ,                        !- Fraction Lost
    ,                        !- Carbon Dioxide Generation Rate {m3/s-W}
    General;                 !- End-Use Subcategory


!-   ===========  ALL OBJECTS IN CLASS: HOTWATEREQUIPMENT ===========

HotWaterEquipment,
    ,                        !- Name
    ,                        !- Zone or ZoneList or Space or SpaceList Name
    ,                        !- Schedule Name
    EquipmentLevel,          !- Design Level Calculation Method
    ,                        !- Design Level {W}
    ,                        !- Power per Zone Floor Area {W/m2}
    ,                        !- Power per Person {W/person}
    ,                        !- Fraction Latent
    ,                        !- Fraction Radiant
    ,                        !- Fraction Lost
    General;                 !- End-Use Subcategory


!-   ===========  ALL OBJECTS IN CLASS: STEAMEQUIPMENT ===========

SteamEquipment,
    ,                        !- Name
    ,                        !- Zone or ZoneList or Space or SpaceList Name
    ,                        !- Schedule Name
    EquipmentLevel,          !- Design Level Calculation Method
    ,                        !- Design Level {W}
    ,                        !- Power per Zone Floor Area {W/m2}
    ,                        !- Power per Person {W/person}
    ,                        !- Fraction Latent
    ,                        !- Fraction Radiant
    ,                        !- Fraction Lost
    General;                 !- End-Use Subcategory


!-   ===========  ALL OBJECTS IN CLASS: OTHEREQUIPMENT ===========

OtherEquipment,
    ,                        !- Name
    None,                    !- Fuel Type
    ,                        !- Zone or ZoneList or Space or SpaceList Name
    ,                        !- Schedule Name
    EquipmentLevel,          !- Design Level Calculation Method
    ,                        !- Design Level {W}
    ,                        !- Power per Zone Floor Area {W/m2}
    ,                        !- Power per Person {W/person}
    ,                        !- Fraction Latent
    ,                        !- Fraction Radiant
    ,                        !- Fraction Lost
    ,                        !- Carbon Dioxide Generation Rate {m3/s-W}
    General;                 !- End-Use Subcategory


!-   ===========  ALL OBJECTS IN CLASS: ELECTRICEQUIPMENT:ITE:AIRCOOLED ===========

ElectricEquipment:ITE:AirCooled,
    ,                        !- Name
    ,                        !- Zone or Space Name
    FlowFromSystem,          !- Air Flow Calculation Method
    Watts/Unit,              !- Design Power Input Calculation Method
    ,                        !- Watts per Unit {W}
    1,                       !- Number of Units
    ,                        !- Watts per Zone Floor Area {W/m2}
    ,                        !- Design Power Input Schedule Name
    ,                        !- CPU Loading  Schedule Name
    ,                        !- CPU Power Input Function of Loading and Air Temperature Curve Name
    ,                        !- Design Fan Power Input Fraction
    ,                        !- Design Fan Air Flow Rate per Power Input {m3/s-W}
    ,                        !- Air Flow Function of Loading and Air Temperature Curve Name
    ,                        !- Fan Power Input Function of Flow Curve Name
    15,                      !- Design Entering Air Temperature {C}
    None,                    !- Environmental Class
    AdjustedSupply,          !- Air Inlet Connection Type
    ,                        !- Air Inlet Room Air Model Node Name
    ,                        !- Air Outlet Room Air Model Node Name
    ,                        !- Supply Air Node Name
    ,                        !- Design Recirculation Fraction
    ,                        !- Recirculation Function of Loading and Supply Temperature Curve Name
    1,                       !- Design Electric Power Supply Efficiency
    ,                        !- Electric Power Supply Efficiency Function of Part Load Ratio Curve Name
    1,                       !- Fraction of Electric Power Supply Losses to Zone
    ITE-CPU,                 !- CPU End-Use Subcategory
    ITE-Fans,                !- Fan End-Use Subcategory
    ITE-UPS;                 !- Electric Power Supply End-Use Subcategory


!-   ===========  ALL OBJECTS IN CLASS: ZONEBASEBOARD:OUTDOORTEMPERATURECONTROLLED ===========

ZoneBaseboard:OutdoorTemperatureControlled,
    ,                        !- Name
    ,                        !- Zone or ZoneList or Space or SpaceList Name
    ,                        !- Schedule Name
    ,                        !- Capacity at Low Temperature {W}
    ,                        !- Low Temperature {C}
    ,                        !- Capacity at High Temperature {W}
    ,                        !- High Temperature {C}
    ,                        !- Fraction Radiant
    General;                 !- End-Use Subcategory


!-   ===========  ALL OBJECTS IN CLASS: SWIMMINGPOOL:INDOOR ===========

SwimmingPool:Indoor,
    ,                        !- Name
    ,                        !- Surface Name
    ,                        !- Average Depth {m}
    ,                        !- Activity Factor Schedule Name
    ,                        !- Make-up Water Supply Schedule Name
    ,                        !- Cover Schedule Name
    ,                        !- Cover Evaporation Factor
    ,                        !- Cover Convection Factor
    ,                        !- Cover Short-Wavelength Radiation Factor
    ,                        !- Cover Long-Wavelength Radiation Factor
    ,                        !- Pool Water Inlet Node
    ,                        !- Pool Water Outlet Node
    ,                        !- Pool Heating System Maximum Water Flow Rate {m3/s}
    ,                        !- Pool Miscellaneous Equipment Power {W/(m3/s)}
    ,                        !- Setpoint Temperature Schedule
    ;                        !- Maximum Number of People


!-   ===========  ALL OBJECTS IN CLASS: ZONECONTAMINANTSOURCEANDSINK:CARBONDIOXIDE ===========

ZoneContaminantSourceAndSink:CarbonDioxide,
    ;                        !- Name


!-   ===========  ALL OBJECTS IN CLASS: ZONECONTAMINANTSOURCEANDSINK:GENERIC:CONSTANT ===========

ZoneContaminantSourceAndSink:Generic:Constant,
    ;                        !- Name


!-   ===========  ALL OBJECTS IN CLASS: SURFACECONTAMINANTSOURCEANDSINK:GENERIC:PRESSUREDRIVEN ===========

SurfaceContaminantSourceAndSink:Generic:PressureDriven,
    ;                        !- Name


!-   ===========  ALL OBJECTS IN CLASS: ZONECONTAMINANTSOURCEANDSINK:GENERIC:CUTOFFMODEL ===========

ZoneContaminantSourceAndSink:Generic:CutoffModel,
    ;                        !- Name


!-   ===========  ALL OBJECTS IN CLASS: ZONECONTAMINANTSOURCEANDSINK:GENERIC:DECAYSOURCE ===========

ZoneContaminantSourceAndSink:Generic:DecaySource,
    ;                        !- Name


!-   ===========  ALL OBJECTS IN CLASS: SURFACECONTAMINANTSOURCEANDSINK:GENERIC:BOUNDARYLAYERDIFFUSION ===========

SurfaceContaminantSourceAndSink:Generic:BoundaryLayerDiffusion,
    ;                        !- Name


!-   ===========  ALL OBJECTS IN CLASS: SURFACECONTAMINANTSOURCEANDSINK:GENERIC:DEPOSITIONVELOCITYSINK ===========

SurfaceContaminantSourceAndSink:Generic:DepositionVelocitySink,
    ;                        !- Name


!-   ===========  ALL OBJECTS IN CLASS: ZONECONTAMINANTSOURCEANDSINK:GENERIC:DEPOSITIONRATESINK ===========

ZoneContaminantSourceAndSink:Generic:DepositionRateSink,
    ;                        !- Name


!-   ===========  ALL OBJECTS IN CLASS: DAYLIGHTING:CONTROLS ===========

Daylighting:Controls,
    ,                        !- Name
    ,                        !- Zone or Space Name
    SplitFlux,               !- Daylighting Method
    ,                        !- Availability Schedule Name
    Continuous,              !- Lighting Control Type
    0.3,                     !- Minimum Input Power Fraction for Continuous or ContinuousOff Dimming Control
    0.2,                     !- Minimum Light Output Fraction for Continuous or ContinuousOff Dimming Control
    1,                       !- Number of Stepped Control Steps
    1,                       !- Probability Lighting will be Reset When Needed in Manual Stepped Control
    ,                        !- Glare Calculation Daylighting Reference Point Name
    ,                        !- Glare Calculation Azimuth Angle of View Direction Clockwise from Zone y-Axis {deg}
    22,                      !- Maximum Allowable Discomfort Glare Index
    ,                        !- DElight Gridding Resolution {m2}
    ,                        !- Daylighting Reference Point 1 Name
    1,                       !- Fraction of Lights Controlled by Reference Point 1
    500,                     !- Illuminance Setpoint at Reference Point 1 {lux}
    ,                        !- Daylighting Reference Point 2 Name
    1,                       !- Fraction of Lights Controlled by Reference Point 2
    500,                     !- Illuminance Setpoint at Reference Point 2 {lux}
    ,                        !- Daylighting Reference Point 3 Name
    1,                       !- Fraction of Lights Controlled by Reference Point 3
    500,                     !- Illuminance Setpoint at Reference Point 3 {lux}
    ,                        !- Daylighting Reference Point 4 Name
    1,                       !- Fraction of Lights Controlled by Reference Point 4
    500,                     !- Illuminance Setpoint at Reference Point 4 {lux}
    ,                        !- Daylighting Reference Point 5 Name
    1,                       !- Fraction of Lights Controlled by Reference Point 5
    500,                     !- Illuminance Setpoint at Reference Point 5 {lux}
    ,                        !- Daylighting Reference Point 6 Name
    1,                       !- Fraction of Zone Controlled by Reference Point 6
    500,                     !- Illuminance Setpoint at Reference Point 6 {lux}
    ,                        !- Daylighting Reference Point 7 Name
    1,                       !- Fraction of Lights Controlled by Reference Point 7
    500,                     !- Illuminance Setpoint at Reference Point 7 {lux}
    ,                        !- Daylighting Reference Point 8 Name
    1,                       !- Fraction of Lights Controlled by Reference Point 8
    500,                     !- Illuminance Setpoint at Reference Point 8 {lux}
    ,                        !- Daylighting Reference Point 9 Name
    1,                       !- Fraction of Zone Controlled by Reference Point 9
    500,                     !- Illuminance Setpoint at Reference Point 9 {lux}
    ,                        !- Daylighting Reference Point 10 Name
    1,                       !- Fraction of Lights Controlled by Reference Point 10
    500;                     !- Illuminance Setpoint at Reference Point 10 {lux}


!-   ===========  ALL OBJECTS IN CLASS: DAYLIGHTING:REFERENCEPOINT ===========

Daylighting:ReferencePoint,
    ,                        !- Name
    ,                        !- Zone or Space Name
    ,                        !- X-Coordinate of Reference Point {m}
    ,                        !- Y-Coordinate of Reference Point {m}
    0.8;                     !- Z-Coordinate of Reference Point {m}


!-   ===========  ALL OBJECTS IN CLASS: DAYLIGHTING:DELIGHT:COMPLEXFENESTRATION ===========

Daylighting:DELight:ComplexFenestration,
    ,                        !- Name
    ,                        !- Complex Fenestration Type
    ,                        !- Building Surface Name
    ,                        !- Window Name
    ;                        !- Fenestration Rotation {deg}


!-   ===========  ALL OBJECTS IN CLASS: DAYLIGHTINGDEVICE:TUBULAR ===========

DaylightingDevice:Tubular,
    ,                        !- Name
    ,                        !- Dome Name
    ,                        !- Diffuser Name
    ,                        !- Construction Name
    ,                        !- Diameter {m}
    ,                        !- Total Length {m}
    0.28;                    !- Effective Thermal Resistance {m2-K/W}


!-   ===========  ALL OBJECTS IN CLASS: DAYLIGHTINGDEVICE:SHELF ===========

DaylightingDevice:Shelf,
    ;                        !- Name


!-   ===========  ALL OBJECTS IN CLASS: DAYLIGHTINGDEVICE:LIGHTWELL ===========

DaylightingDevice:LightWell,
    ,                        !- Exterior Window Name
    ,                        !- Height of Well {m}
    ,                        !- Perimeter of Bottom of Well {m}
    ,                        !- Area of Bottom of Well {m2}
    ;                        !- Visible Reflectance of Well Walls {dimensionless}


!-   ===========  ALL OBJECTS IN CLASS: OUTPUT:DAYLIGHTFACTORS ===========

Output:DaylightFactors,
    ;                        !- Reporting Days


!-   ===========  ALL OBJECTS IN CLASS: OUTPUT:ILLUMINANCEMAP ===========

Output:IlluminanceMap,
    ,                        !- Name
    ,                        !- Zone Name
    ,                        !- Z height {m}
    ,                        !- X Minimum Coordinate {m}
    1,                       !- X Maximum Coordinate {m}
    2,                       !- Number of X Grid Points
    ,                        !- Y Minimum Coordinate {m}
    1,                       !- Y Maximum Coordinate {m}
    2;                       !- Number of Y Grid Points


!-   ===========  ALL OBJECTS IN CLASS: OUTPUTCONTROL:ILLUMINANCEMAP:STYLE ===========

OutputControl:IlluminanceMap:Style,
    Comma;                   !- Column Separator


!-   ===========  ALL OBJECTS IN CLASS: ZONEINFILTRATION:DESIGNFLOWRATE ===========

ZoneInfiltration:DesignFlowRate,
    ,                        !- Name
    ,                        !- Zone or ZoneList Name
    ,                        !- Schedule Name
    Flow/Zone,               !- Design Flow Rate Calculation Method
    ,                        !- Design Flow Rate {m3/s}
    ,                        !- Flow per Zone Floor Area {m3/s-m2}
    ,                        !- Flow per Exterior Surface Area {m3/s-m2}
    ,                        !- Air Changes per Hour {1/hr}
    1,                       !- Constant Term Coefficient
    ,                        !- Temperature Term Coefficient
    ,                        !- Velocity Term Coefficient
    ;                        !- Velocity Squared Term Coefficient


!-   ===========  ALL OBJECTS IN CLASS: ZONEINFILTRATION:EFFECTIVELEAKAGEAREA ===========

ZoneInfiltration:EffectiveLeakageArea,
    ,                        !- Name
    ,                        !- Zone Name
    ,                        !- Schedule Name
    ,                        !- Effective Air Leakage Area {cm2}
    ,                        !- Stack Coefficient
    ;                        !- Wind Coefficient


!-   ===========  ALL OBJECTS IN CLASS: ZONEINFILTRATION:FLOWCOEFFICIENT ===========

ZoneInfiltration:FlowCoefficient,
    ,                        !- Name
    ,                        !- Zone Name
    ,                        !- Schedule Name
    ,                        !- Flow Coefficient
    ,                        !- Stack Coefficient
    0.67,                    !- Pressure Exponent
    ,                        !- Wind Coefficient
    ;                        !- Shelter Factor


!-   ===========  ALL OBJECTS IN CLASS: ZONEVENTILATION:DESIGNFLOWRATE ===========

ZoneVentilation:DesignFlowRate,
    ,                        !- Name
    ,                        !- Zone or ZoneList Name
    ,                        !- Schedule Name
    Flow/Zone,               !- Design Flow Rate Calculation Method
    ,                        !- Design Flow Rate {m3/s}
    ,                        !- Flow Rate per Zone Floor Area {m3/s-m2}
    ,                        !- Flow Rate per Person {m3/s-person}
    ,                        !- Air Changes per Hour {1/hr}
    Natural,                 !- Ventilation Type
    ,                        !- Fan Pressure Rise {Pa}
    1,                       !- Fan Total Efficiency
    1,                       !- Constant Term Coefficient
    ,                        !- Temperature Term Coefficient
    ,                        !- Velocity Term Coefficient
    ,                        !- Velocity Squared Term Coefficient
    -100,                    !- Minimum Indoor Temperature {C}
    ,                        !- Minimum Indoor Temperature Schedule Name
    100,                     !- Maximum Indoor Temperature {C}
    ,                        !- Maximum Indoor Temperature Schedule Name
    -100,                    !- Delta Temperature {deltaC}
    ,                        !- Delta Temperature Schedule Name
    -100,                    !- Minimum Outdoor Temperature {C}
    ,                        !- Minimum Outdoor Temperature Schedule Name
    100,                     !- Maximum Outdoor Temperature {C}
    ,                        !- Maximum Outdoor Temperature Schedule Name
    40;                      !- Maximum Wind Speed {m/s}


!-   ===========  ALL OBJECTS IN CLASS: ZONEVENTILATION:WINDANDSTACKOPENAREA ===========

ZoneVentilation:WindandStackOpenArea,
    ,                        !- Name
    ,                        !- Zone Name
    ,                        !- Opening Area {m2}
    ,                        !- Opening Area Fraction Schedule Name
    autocalculate,           !- Opening Effectiveness {dimensionless}
    ,                        !- Effective Angle {deg}
    ,                        !- Height Difference {m}
    autocalculate,           !- Discharge Coefficient for Opening
    -100,                    !- Minimum Indoor Temperature {C}
    ,                        !- Minimum Indoor Temperature Schedule Name
    100,                     !- Maximum Indoor Temperature {C}
    ,                        !- Maximum Indoor Temperature Schedule Name
    -100,                    !- Delta Temperature {deltaC}
    ,                        !- Delta Temperature Schedule Name
    -100,                    !- Minimum Outdoor Temperature {C}
    ,                        !- Minimum Outdoor Temperature Schedule Name
    100,                     !- Maximum Outdoor Temperature {C}
    ,                        !- Maximum Outdoor Temperature Schedule Name
    40;                      !- Maximum Wind Speed {m/s}


!-   ===========  ALL OBJECTS IN CLASS: ZONEAIRBALANCE:OUTDOORAIR ===========

ZoneAirBalance:OutdoorAir,
    ,                        !- Name
    ,                        !- Zone Name
    Quadrature;              !- Air Balance Method


!-   ===========  ALL OBJECTS IN CLASS: ZONEMIXING ===========

ZoneMixing,
    ,                        !- Name
    ,                        !- Zone Name
    ,                        !- Schedule Name
    Flow/Zone,               !- Design Flow Rate Calculation Method
    ,                        !- Design Flow Rate {m3/s}
    ,                        !- Flow Rate per Zone Floor Area {m3/s-m2}
    ,                        !- Flow Rate per Person {m3/s-person}
    ,                        !- Air Changes per Hour {1/hr}
    ;                        !- Source Zone Name


!-   ===========  ALL OBJECTS IN CLASS: ZONECROSSMIXING ===========

ZoneCrossMixing,
    ,                        !- Name
    ,                        !- Zone Name
    ,                        !- Schedule Name
    Flow/Zone,               !- Design Flow Rate Calculation Method
    ,                        !- Design Flow Rate {m3/s}
    ,                        !- Flow Rate per Zone Floor Area {m3/s-m2}
    ,                        !- Flow Rate per Person {m3/s-person}
    ,                        !- Air Changes per Hour {1/hr}
    ;                        !- Source Zone Name


!-   ===========  ALL OBJECTS IN CLASS: ZONEREFRIGERATIONDOORMIXING ===========

ZoneRefrigerationDoorMixing,
    ,                        !- Name
    ,                        !- Zone 1 Name
    ,                        !- Zone 2 Name
    ,                        !- Schedule Name
    3,                       !- Door Height {m}
    9,                       !- Door Area {m2}
    None;                    !- Door Protection Type


!-   ===========  ALL OBJECTS IN CLASS: ZONEEARTHTUBE ===========

ZoneEarthtube,
    ,                        !- Zone Name
    ,                        !- Schedule Name
    ,                        !- Design Flow Rate {m3/s}
    ,                        !- Minimum Zone Temperature when Cooling {C}
    ,                        !- Maximum Zone Temperature when Heating {C}
    ,                        !- Delta Temperature {deltaC}
    Natural,                 !- Earthtube Type
    ,                        !- Fan Pressure Rise {Pa}
    1,                       !- Fan Total Efficiency
    1,                       !- Pipe Radius {m}
    0.2,                     !- Pipe Thickness {m}
    15,                      !- Pipe Length {m}
    200,                     !- Pipe Thermal Conductivity {W/m-K}
    3,                       !- Pipe Depth Under Ground Surface {m}
    HeavyAndDamp,            !- Soil Condition
    ,                        !- Average Soil Surface Temperature {C}
    ,                        !- Amplitude of Soil Surface Temperature {deltaC}
    ,                        !- Phase Constant of Soil Surface Temperature {days}
    1,                       !- Constant Term Flow Coefficient
    ,                        !- Temperature Term Flow Coefficient
    ,                        !- Velocity Term Flow Coefficient
    ;                        !- Velocity Squared Term Flow Coefficient


!-   ===========  ALL OBJECTS IN CLASS: ZONECOOLTOWER:SHOWER ===========

ZoneCoolTower:Shower,
    ,                        !- Name
    ,                        !- Availability Schedule Name
    ,                        !- Zone Name
    ,                        !- Water Supply Storage Tank Name
    WindDrivenFlow;          !- Flow Control Type


!-   ===========  ALL OBJECTS IN CLASS: ZONETHERMALCHIMNEY ===========

ZoneThermalChimney,
    ,                        !- Name
    ,                        !- Zone Name
    ,                        !- Availability Schedule Name
    ,                        !- Width of the Absorber Wall {m}
    ,                        !- Cross Sectional Area of Air Channel Outlet {m2}
    0.8,                     !- Discharge Coefficient
    ,                        !- Zone 1 Name
    ,                        !- Distance from Top of Thermal Chimney to Inlet 1 {m}
    1,                       !- Relative Ratios of Air Flow Rates Passing through Zone 1
    ;                        !- Cross Sectional Areas of Air Channel Inlet 1 {m2}


!-   ===========  ALL OBJECTS IN CLASS: AIRFLOWNETWORK:SIMULATIONCONTROL ===========

AirflowNetwork:SimulationControl,
    ,                        !- Name
    NoMultizoneOrDistribution,  !- AirflowNetwork Control
    SurfaceAverageCalculation,  !- Wind Pressure Coefficient Type
    OpeningHeight,           !- Height Selection for Local Wind Pressure Calculation
    LowRise,                 !- Building Type
    500,                     !- Maximum Number of Iterations {dimensionless}
    ZeroNodePressures,       !- Initialization Type
    0.0001,                  !- Relative Airflow Convergence Tolerance {dimensionless}
    0.000001,                !- Absolute Airflow Convergence Tolerance {kg/s}
    -.5,                     !- Convergence Acceleration Limit {dimensionless}
    ,                        !- Azimuth Angle of Long Axis of Building {deg}
    1,                       !- Ratio of Building Width Along Short Axis to Width Along Long Axis
    No,                      !- Height Dependence of External Node Temperature
    SkylineLU,               !- Solver
    No;                      !- Allow Unsupported Zone Equipment


!-   ===========  ALL OBJECTS IN CLASS: AIRFLOWNETWORK:MULTIZONE:ZONE ===========

AirflowNetwork:MultiZone:Zone,
    ,                        !- Zone Name
    NoVent,                  !- Ventilation Control Mode
    ,                        !- Ventilation Control Zone Temperature Setpoint Schedule Name
    ,                        !- Minimum Venting Open Factor {dimensionless}
    ,                        !- Indoor and Outdoor Temperature Difference Lower Limit For Maximum Venting Open Factor {deltaC}
    100,                     !- Indoor and Outdoor Temperature Difference Upper Limit for Minimum Venting Open Factor {deltaC}
    ,                        !- Indoor and Outdoor Enthalpy Difference Lower Limit For Maximum Venting Open Factor {deltaJ/kg}
    300000,                  !- Indoor and Outdoor Enthalpy Difference Upper Limit for Minimum Venting Open Factor {deltaJ/kg}
    ,                        !- Venting Availability Schedule Name
    Standard,                !- Single Sided Wind Pressure Coefficient Algorithm
    10;                      !- Facade Width {m}


!-   ===========  ALL OBJECTS IN CLASS: AIRFLOWNETWORK:MULTIZONE:SURFACE ===========

AirflowNetwork:MultiZone:Surface,
    ,                        !- Surface Name
    ,                        !- Leakage Component Name
    ,                        !- External Node Name
    1,                       !- Window/Door Opening Factor, or Crack Factor {dimensionless}
    ZoneLevel,               !- Ventilation Control Mode
    ,                        !- Ventilation Control Zone Temperature Setpoint Schedule Name
    ,                        !- Minimum Venting Open Factor {dimensionless}
    ,                        !- Indoor and Outdoor Temperature Difference Lower Limit For Maximum Venting Open Factor {deltaC}
    100,                     !- Indoor and Outdoor Temperature Difference Upper Limit for Minimum Venting Open Factor {deltaC}
    ,                        !- Indoor and Outdoor Enthalpy Difference Lower Limit For Maximum Venting Open Factor {deltaJ/kg}
    300000,                  !- Indoor and Outdoor Enthalpy Difference Upper Limit for Minimum Venting Open Factor {deltaJ/kg}
    ,                        !- Venting Availability Schedule Name
    ,                        !- Occupant Ventilation Control Name
    PolygonHeight,           !- Equivalent Rectangle Method
    1;                       !- Equivalent Rectangle Aspect Ratio {dimensionless}


!-   ===========  ALL OBJECTS IN CLASS: AIRFLOWNETWORK:MULTIZONE:REFERENCECRACKCONDITIONS ===========

AirflowNetwork:MultiZone:ReferenceCrackConditions,
    ,                        !- Name
    ,                        !- Reference Temperature {C}
    101325,                  !- Reference Barometric Pressure {Pa}
    ;                        !- Reference Humidity Ratio {kgWater/kgDryAir}


!-   ===========  ALL OBJECTS IN CLASS: AIRFLOWNETWORK:MULTIZONE:SURFACE:CRACK ===========

AirflowNetwork:MultiZone:Surface:Crack,
    ,                        !- Name
    ,                        !- Air Mass Flow Coefficient at Reference Conditions {kg/s}
    0.65;                    !- Air Mass Flow Exponent {dimensionless}


!-   ===========  ALL OBJECTS IN CLASS: AIRFLOWNETWORK:MULTIZONE:SURFACE:EFFECTIVELEAKAGEAREA ===========

AirflowNetwork:MultiZone:Surface:EffectiveLeakageArea,
    ,                        !- Name
    ,                        !- Effective Leakage Area {m2}
    1,                       !- Discharge Coefficient {dimensionless}
    4,                       !- Reference Pressure Difference {Pa}
    0.65;                    !- Air Mass Flow Exponent {dimensionless}


!-   ===========  ALL OBJECTS IN CLASS: AIRFLOWNETWORK:MULTIZONE:SPECIFIEDFLOWRATE ===========

AirflowNetwork:MultiZone:SpecifiedFlowRate,
    ,                        !- Name
    ,                        !- Air Flow Value
    MassFlow;                !- Air Flow Units


!-   ===========  ALL OBJECTS IN CLASS: AIRFLOWNETWORK:MULTIZONE:COMPONENT:DETAILEDOPENING ===========

AirflowNetwork:MultiZone:Component:DetailedOpening,
    ,                        !- Name
    ,                        !- Air Mass Flow Coefficient When Opening is Closed {kg/s-m}
    0.65,                    !- Air Mass Flow Exponent When Opening is Closed {dimensionless}
    NonPivoted,              !- Type of Rectangular Large Vertical Opening (LVO)
    ,                        !- Extra Crack Length or Height of Pivoting Axis {m}
    ,                        !- Number of Sets of Opening Factor Data
    ,                        !- Opening Factor 1 {dimensionless}
    0.001,                   !- Discharge Coefficient for Opening Factor 1 {dimensionless}
    ,                        !- Width Factor for Opening Factor 1 {dimensionless}
    ,                        !- Height Factor for Opening Factor 1 {dimensionless}
    ,                        !- Start Height Factor for Opening Factor 1 {dimensionless}
    ,                        !- Opening Factor 2 {dimensionless}
    1,                       !- Discharge Coefficient for Opening Factor 2 {dimensionless}
    1,                       !- Width Factor for Opening Factor 2 {dimensionless}
    1,                       !- Height Factor for Opening Factor 2 {dimensionless}
    ;                        !- Start Height Factor for Opening Factor 2 {dimensionless}


!-   ===========  ALL OBJECTS IN CLASS: AIRFLOWNETWORK:MULTIZONE:COMPONENT:SIMPLEOPENING ===========

AirflowNetwork:MultiZone:Component:SimpleOpening,
    ,                        !- Name
    ,                        !- Air Mass Flow Coefficient When Opening is Closed {kg/s-m}
    0.65,                    !- Air Mass Flow Exponent When Opening is Closed {dimensionless}
    ,                        !- Minimum Density Difference for Two-Way Flow {kg/m3}
    ;                        !- Discharge Coefficient {dimensionless}


!-   ===========  ALL OBJECTS IN CLASS: AIRFLOWNETWORK:MULTIZONE:COMPONENT:HORIZONTALOPENING ===========

AirflowNetwork:MultiZone:Component:HorizontalOpening,
    ,                        !- Name
    ,                        !- Air Mass Flow Coefficient When Opening is Closed {kg/s-m}
    0.65,                    !- Air Mass Flow Exponent When Opening is Closed {dimensionless}
    90,                      !- Sloping Plane Angle {deg}
    ;                        !- Discharge Coefficient {dimensionless}


!-   ===========  ALL OBJECTS IN CLASS: AIRFLOWNETWORK:MULTIZONE:COMPONENT:ZONEEXHAUSTFAN ===========

AirflowNetwork:MultiZone:Component:ZoneExhaustFan,
    ,                        !- Name
    ,                        !- Air Mass Flow Coefficient When the Zone Exhaust Fan is Off at Reference Conditions {kg/s}
    0.65;                    !- Air Mass Flow Exponent When the Zone Exhaust Fan is Off {dimensionless}


!-   ===========  ALL OBJECTS IN CLASS: AIRFLOWNETWORK:MULTIZONE:EXTERNALNODE ===========

AirflowNetwork:MultiZone:ExternalNode,
    ,                        !- Name
    ,                        !- External Node Height {m}
    ,                        !- Wind Pressure Coefficient Curve Name
    No,                      !- Symmetric Wind Pressure Coefficient Curve
    Absolute;                !- Wind Angle Type


!-   ===========  ALL OBJECTS IN CLASS: AIRFLOWNETWORK:MULTIZONE:WINDPRESSURECOEFFICIENTARRAY ===========

AirflowNetwork:MultiZone:WindPressureCoefficientArray,
    ,                        !- Name
    ,                        !- Wind Direction 1 {deg}
    ;                        !- Wind Direction 2 {deg}


!-   ===========  ALL OBJECTS IN CLASS: AIRFLOWNETWORK:MULTIZONE:WINDPRESSURECOEFFICIENTVALUES ===========

AirflowNetwork:MultiZone:WindPressureCoefficientValues,
    ,                        !- Name
    ,                        !- AirflowNetwork:MultiZone:WindPressureCoefficientArray Name
    ,                        !- Wind Pressure Coefficient Value 1 {dimensionless}
    ;                        !- Wind Pressure Coefficient Value 2 {dimensionless}


!-   ===========  ALL OBJECTS IN CLASS: AIRFLOWNETWORK:ZONECONTROL:PRESSURECONTROLLER ===========

AirflowNetwork:ZoneControl:PressureController,
    ;                        !- Name


!-   ===========  ALL OBJECTS IN CLASS: AIRFLOWNETWORK:DISTRIBUTION:NODE ===========

AirflowNetwork:Distribution:Node,
    ,                        !- Name
    ,                        !- Component Name or Node Name
    Other,                   !- Component Object Type or Node Type
    ;                        !- Node Height {m}


!-   ===========  ALL OBJECTS IN CLASS: AIRFLOWNETWORK:DISTRIBUTION:COMPONENT:LEAK ===========

AirflowNetwork:Distribution:Component:Leak,
    ,                        !- Name
    ,                        !- Air Mass Flow Coefficient {kg/s}
    0.65;                    !- Air Mass Flow Exponent {dimensionless}


!-   ===========  ALL OBJECTS IN CLASS: AIRFLOWNETWORK:DISTRIBUTION:COMPONENT:LEAKAGERATIO ===========

AirflowNetwork:Distribution:Component:LeakageRatio,
    ,                        !- Name
    ,                        !- Effective Leakage Ratio {dimensionless}
    ,                        !- Maximum Flow Rate {m3/s}
    ,                        !- Reference Pressure Difference {Pa}
    0.65;                    !- Air Mass Flow Exponent {dimensionless}


!-   ===========  ALL OBJECTS IN CLASS: AIRFLOWNETWORK:DISTRIBUTION:COMPONENT:DUCT ===========

AirflowNetwork:Distribution:Component:Duct,
    ,                        !- Name
    ,                        !- Duct Length {m}
    ,                        !- Hydraulic Diameter {m}
    ,                        !- Cross Section Area {m2}
    0.0009,                  !- Surface Roughness {m}
    ,                        !- Coefficient for Local Dynamic Loss Due to Fitting {dimensionless}
    0.943,                   !- Heat Transmittance Coefficient (U-Factor) for Duct Wall Construction {W/m2-K}
    0.001;                   !- Overall Moisture Transmittance Coefficient from Air to Air {kg/m2}


!-   ===========  ALL OBJECTS IN CLASS: AIRFLOWNETWORK:DISTRIBUTION:COMPONENT:FAN ===========

AirflowNetwork:Distribution:Component:Fan,
    ,                        !- Fan Name
    Fan:ConstantVolume;      !- Supply Fan Object Type


!-   ===========  ALL OBJECTS IN CLASS: AIRFLOWNETWORK:DISTRIBUTION:COMPONENT:COIL ===========

AirflowNetwork:Distribution:Component:Coil,
    ,                        !- Coil Name
    ,                        !- Coil Object Type
    ,                        !- Air Path Length {m}
    ;                        !- Air Path Hydraulic Diameter {m}


!-   ===========  ALL OBJECTS IN CLASS: AIRFLOWNETWORK:DISTRIBUTION:COMPONENT:HEATEXCHANGER ===========

AirflowNetwork:Distribution:Component:HeatExchanger,
    ,                        !- HeatExchanger Name
    ,                        !- HeatExchanger Object Type
    ,                        !- Air Path Length {m}
    ;                        !- Air Path Hydraulic Diameter {m}


!-   ===========  ALL OBJECTS IN CLASS: AIRFLOWNETWORK:DISTRIBUTION:COMPONENT:TERMINALUNIT ===========

AirflowNetwork:Distribution:Component:TerminalUnit,
    ,                        !- Terminal Unit Name
    ,                        !- Terminal Unit Object Type
    ,                        !- Air Path Length {m}
    ;                        !- Air Path Hydraulic Diameter {m}


!-   ===========  ALL OBJECTS IN CLASS: AIRFLOWNETWORK:DISTRIBUTION:COMPONENT:CONSTANTPRESSUREDROP ===========

AirflowNetwork:Distribution:Component:ConstantPressureDrop,
    ,                        !- Name
    ;                        !- Pressure Difference Across the Component {Pa}


!-   ===========  ALL OBJECTS IN CLASS: AIRFLOWNETWORK:DISTRIBUTION:COMPONENT:OUTDOORAIRFLOW ===========

AirflowNetwork:Distribution:Component:OutdoorAirFlow,
    ,                        !- Name
    ,                        !- Outdoor Air Mixer Name
    ,                        !- Air Mass Flow Coefficient When No Outdoor Air Flow at Reference Conditions {kg/s}
    0.65;                    !- Air Mass Flow Exponent When No Outdoor Air Flow {dimensionless}


!-   ===========  ALL OBJECTS IN CLASS: AIRFLOWNETWORK:DISTRIBUTION:COMPONENT:RELIEFAIRFLOW ===========

AirflowNetwork:Distribution:Component:ReliefAirFlow,
    ,                        !- Name
    ,                        !- Outdoor Air Mixer Name
    ,                        !- Air Mass Flow Coefficient When No Outdoor Air Flow at Reference Conditions {kg/s}
    0.65;                    !- Air Mass Flow Exponent When No Outdoor Air Flow {dimensionless}


!-   ===========  ALL OBJECTS IN CLASS: AIRFLOWNETWORK:DISTRIBUTION:LINKAGE ===========

AirflowNetwork:Distribution:Linkage,
    ,                        !- Name
    ,                        !- Node 1 Name
    ,                        !- Node 2 Name
    ;                        !- Component Name


!-   ===========  ALL OBJECTS IN CLASS: AIRFLOWNETWORK:DISTRIBUTION:DUCTVIEWFACTORS ===========

AirflowNetwork:Distribution:DuctViewFactors,
    ,                        !- Linkage Name
    ,                        !- Duct Surface Exposure Fraction
    0.9;                     !- Duct Surface Emittance


!-   ===========  ALL OBJECTS IN CLASS: AIRFLOWNETWORK:OCCUPANTVENTILATIONCONTROL ===========

AirflowNetwork:OccupantVentilationControl,
    ,                        !- Name
    ,                        !- Minimum Opening Time {minutes}
    ,                        !- Minimum Closing Time {minutes}
    ,                        !- Thermal Comfort Low Temperature Curve Name
    10,                      !- Thermal Comfort Temperature Boundary Point {C}
    ,                        !- Thermal Comfort High Temperature Curve Name
    10,                      !- Maximum Threshold for Persons Dissatisfied PPD {percent}
    No;                      !- Occupancy Check


!-   ===========  ALL OBJECTS IN CLASS: AIRFLOWNETWORK:INTRAZONE:NODE ===========

AirflowNetwork:IntraZone:Node,
    ,                        !- Name
    ;                        !- RoomAir:Node:AirflowNetwork Name


!-   ===========  ALL OBJECTS IN CLASS: AIRFLOWNETWORK:INTRAZONE:LINKAGE ===========

AirflowNetwork:IntraZone:Linkage,
    ,                        !- Name
    ,                        !- Node 1 Name
    ,                        !- Node 2 Name
    ;                        !- Component Name


!-   ===========  ALL OBJECTS IN CLASS: EXTERIOR:LIGHTS ===========

Exterior:Lights,
    ,                        !- Name
    ,                        !- Schedule Name
    ,                        !- Design Level {W}
    ,                        !- Control Option
    General;                 !- End-Use Subcategory


!-   ===========  ALL OBJECTS IN CLASS: EXTERIOR:FUELEQUIPMENT ===========

Exterior:FuelEquipment,
    ,                        !- Name
    ,                        !- Fuel Use Type
    ,                        !- Schedule Name
    ,                        !- Design Level {W}
    General;                 !- End-Use Subcategory


!-   ===========  ALL OBJECTS IN CLASS: EXTERIOR:WATEREQUIPMENT ===========

Exterior:WaterEquipment,
    ,                        !- Name
    Water,                   !- Fuel Use Type
    ,                        !- Schedule Name
    ,                        !- Design Level {m3/s}
    General;                 !- End-Use Subcategory


!-   ===========  ALL OBJECTS IN CLASS: HVACTEMPLATE:THERMOSTAT ===========

HVACTemplate:Thermostat,
    ,                        !- Name
    ,                        !- Heating Setpoint Schedule Name
    ,                        !- Constant Heating Setpoint {C}
    ,                        !- Cooling Setpoint Schedule Name
    ;                        !- Constant Cooling Setpoint {C}


!-   ===========  ALL OBJECTS IN CLASS: HVACTEMPLATE:ZONE:IDEALLOADSAIRSYSTEM ===========

HVACTemplate:Zone:IdealLoadsAirSystem,
    ,                        !- Zone Name
    ,                        !- Template Thermostat Name
    ,                        !- System Availability Schedule Name
    50,                      !- Maximum Heating Supply Air Temperature {C}
    13,                      !- Minimum Cooling Supply Air Temperature {C}
    0.0156,                  !- Maximum Heating Supply Air Humidity Ratio {kgWater/kgDryAir}
    0.0077,                  !- Minimum Cooling Supply Air Humidity Ratio {kgWater/kgDryAir}
    NoLimit,                 !- Heating Limit
    ,                        !- Maximum Heating Air Flow Rate {m3/s}
    ,                        !- Maximum Sensible Heating Capacity {W}
    NoLimit,                 !- Cooling Limit
    ,                        !- Maximum Cooling Air Flow Rate {m3/s}
    ,                        !- Maximum Total Cooling Capacity {W}
    ,                        !- Heating Availability Schedule Name
    ,                        !- Cooling Availability Schedule Name
    ConstantSensibleHeatRatio,  !- Dehumidification Control Type
    0.7,                     !- Cooling Sensible Heat Ratio {dimensionless}
    60,                      !- Dehumidification Setpoint {percent}
    None,                    !- Humidification Control Type
    30,                      !- Humidification Setpoint {percent}
    None,                    !- Outdoor Air Method
    0.00944,                 !- Outdoor Air Flow Rate per Person {m3/s}
    ,                        !- Outdoor Air Flow Rate per Zone Floor Area {m3/s-m2}
    ,                        !- Outdoor Air Flow Rate per Zone {m3/s}
    ,                        !- Design Specification Outdoor Air Object Name
    None,                    !- Demand Controlled Ventilation Type
    NoEconomizer,            !- Outdoor Air Economizer Type
    None,                    !- Heat Recovery Type
    0.7,                     !- Sensible Heat Recovery Effectiveness {dimensionless}
    0.65;                    !- Latent Heat Recovery Effectiveness {dimensionless}


!-   ===========  ALL OBJECTS IN CLASS: HVACTEMPLATE:ZONE:BASEBOARDHEAT ===========

HVACTemplate:Zone:BaseboardHeat,
    ,                        !- Zone Name
    ,                        !- Template Thermostat Name
    ,                        !- Zone Heating Sizing Factor
    HotWater,                !- Baseboard Heating Type
    ,                        !- Baseboard Heating Availability Schedule Name
    autosize,                !- Baseboard Heating Capacity {W}
    ,                        !- Dedicated Outdoor Air System Name
    Flow/Person,             !- Outdoor Air Method
    0.00944,                 !- Outdoor Air Flow Rate per Person {m3/s}
    ,                        !- Outdoor Air Flow Rate per Zone Floor Area {m3/s-m2}
    ;                        !- Outdoor Air Flow Rate per Zone {m3/s}


!-   ===========  ALL OBJECTS IN CLASS: HVACTEMPLATE:ZONE:FANCOIL ===========

HVACTemplate:Zone:FanCoil,
    ,                        !- Zone Name
    ,                        !- Template Thermostat Name
    autosize,                !- Supply Air Maximum Flow Rate {m3/s}
    ,                        !- Zone Heating Sizing Factor
    ,                        !- Zone Cooling Sizing Factor
    Flow/Person,             !- Outdoor Air Method
    0.00944,                 !- Outdoor Air Flow Rate per Person {m3/s}
    ,                        !- Outdoor Air Flow Rate per Zone Floor Area {m3/s-m2}
    ,                        !- Outdoor Air Flow Rate per Zone {m3/s}
    ,                        !- System Availability Schedule Name
    0.7,                     !- Supply Fan Total Efficiency
    75,                      !- Supply Fan Delta Pressure {Pa}
    0.9,                     !- Supply Fan Motor Efficiency
    1,                       !- Supply Fan Motor in Air Stream Fraction
    ChilledWater,            !- Cooling Coil Type
    ,                        !- Cooling Coil Availability Schedule Name
    14,                      !- Cooling Coil Design Setpoint {C}
    HotWater,                !- Heating Coil Type
    ,                        !- Heating Coil Availability Schedule Name
    50,                      !- Heating Coil Design Setpoint {C}
    ,                        !- Dedicated Outdoor Air System Name
    SupplyAirTemperature,    !- Zone Cooling Design Supply Air Temperature Input Method
    11.11,                   !- Zone Cooling Design Supply Air Temperature Difference {deltaC}
    SupplyAirTemperature,    !- Zone Heating Design Supply Air Temperature Input Method
    30,                      !- Zone Heating Design Supply Air Temperature Difference {deltaC}
    ,                        !- Design Specification Outdoor Air Object Name
    ,                        !- Design Specification Zone Air Distribution Object Name
    ,                        !- Capacity Control Method
    0.33,                    !- Low Speed Supply Air Flow Ratio
    0.66,                    !- Medium Speed Supply Air Flow Ratio
    ,                        !- Outdoor Air Schedule Name
    None,                    !- Baseboard Heating Type
    ,                        !- Baseboard Heating Availability Schedule Name
    autosize;                !- Baseboard Heating Capacity {W}


!-   ===========  ALL OBJECTS IN CLASS: HVACTEMPLATE:ZONE:PTAC ===========

HVACTemplate:Zone:PTAC,
    ,                        !- Zone Name
    ,                        !- Template Thermostat Name
    autosize,                !- Cooling Supply Air Flow Rate {m3/s}
    autosize,                !- Heating Supply Air Flow Rate {m3/s}
    ,                        !- No Load Supply Air Flow Rate {m3/s}
    ,                        !- Zone Heating Sizing Factor
    ,                        !- Zone Cooling Sizing Factor
    Flow/Person,             !- Outdoor Air Method
    0.00944,                 !- Outdoor Air Flow Rate per Person {m3/s}
    ,                        !- Outdoor Air Flow Rate per Zone Floor Area {m3/s-m2}
    ,                        !- Outdoor Air Flow Rate per Zone {m3/s}
    ,                        !- System Availability Schedule Name
    ,                        !- Supply Fan Operating Mode Schedule Name
    DrawThrough,             !- Supply Fan Placement
    0.7,                     !- Supply Fan Total Efficiency
    75,                      !- Supply Fan Delta Pressure {Pa}
    0.9,                     !- Supply Fan Motor Efficiency
    SingleSpeedDX,           !- Cooling Coil Type
    ,                        !- Cooling Coil Availability Schedule Name
    autosize,                !- Cooling Coil Gross Rated Total Capacity {W}
    autosize,                !- Cooling Coil Gross Rated Sensible Heat Ratio
    3,                       !- Cooling Coil Gross Rated Cooling COP {W/W}
    Electric,                !- Heating Coil Type
    ,                        !- Heating Coil Availability Schedule Name
    autosize,                !- Heating Coil Capacity {W}
    0.8,                     !- Gas Heating Coil Efficiency
    ,                        !- Gas Heating Coil Parasitic Electric Load {W}
    ,                        !- Dedicated Outdoor Air System Name
    SupplyAirTemperature,    !- Zone Cooling Design Supply Air Temperature Input Method
    14,                      !- Zone Cooling Design Supply Air Temperature {C}
    11.11,                   !- Zone Cooling Design Supply Air Temperature Difference {deltaC}
    SupplyAirTemperature,    !- Zone Heating Design Supply Air Temperature Input Method
    50,                      !- Zone Heating Design Supply Air Temperature {C}
    30,                      !- Zone Heating Design Supply Air Temperature Difference {deltaC}
    ,                        !- Design Specification Outdoor Air Object Name
    ,                        !- Design Specification Zone Air Distribution Object Name
    None,                    !- Baseboard Heating Type
    ,                        !- Baseboard Heating Availability Schedule Name
    autosize,                !- Baseboard Heating Capacity {W}
    None;                    !- Capacity Control Method


!-   ===========  ALL OBJECTS IN CLASS: HVACTEMPLATE:ZONE:PTHP ===========

HVACTemplate:Zone:PTHP,
    ,                        !- Zone Name
    ,                        !- Template Thermostat Name
    autosize,                !- Cooling Supply Air Flow Rate {m3/s}
    autosize,                !- Heating Supply Air Flow Rate {m3/s}
    ,                        !- No Load Supply Air Flow Rate {m3/s}
    ,                        !- Zone Heating Sizing Factor
    ,                        !- Zone Cooling Sizing Factor
    Flow/Person,             !- Outdoor Air Method
    0.00944,                 !- Outdoor Air Flow Rate per Person {m3/s}
    ,                        !- Outdoor Air Flow Rate per Zone Floor Area {m3/s-m2}
    ,                        !- Outdoor Air Flow Rate per Zone {m3/s}
    ,                        !- System Availability Schedule Name
    ,                        !- Supply Fan Operating Mode Schedule Name
    DrawThrough,             !- Supply Fan Placement
    0.7,                     !- Supply Fan Total Efficiency
    75,                      !- Supply Fan Delta Pressure {Pa}
    0.9,                     !- Supply Fan Motor Efficiency
    SingleSpeedDX,           !- Cooling Coil Type
    ,                        !- Cooling Coil Availability Schedule Name
    autosize,                !- Cooling Coil Gross Rated Total Capacity {W}
    autosize,                !- Cooling Coil Gross Rated Sensible Heat Ratio
    3,                       !- Cooling Coil Gross Rated COP {W/W}
    SingleSpeedDXHeatPump,   !- Heat Pump Heating Coil Type
    ,                        !- Heat Pump Heating Coil Availability Schedule Name
    autosize,                !- Heat Pump Heating Coil Gross Rated Capacity {W}
    2.75,                    !- Heat Pump Heating Coil Gross Rated COP {W/W}
    -8,                      !- Heat Pump Heating Minimum Outdoor Dry-Bulb Temperature {C}
    5,                       !- Heat Pump Defrost Maximum Outdoor Dry-Bulb Temperature {C}
    ReverseCycle,            !- Heat Pump Defrost Strategy
    Timed,                   !- Heat Pump Defrost Control
    0.058333,                !- Heat Pump Defrost Time Period Fraction
    Electric,                !- Supplemental Heating Coil Type
    ,                        !- Supplemental Heating Coil Availability Schedule Name
    autosize,                !- Supplemental Heating Coil Capacity {W}
    21,                      !- Supplemental Heating Coil Maximum Outdoor Dry-Bulb Temperature {C}
    0.8,                     !- Supplemental Gas Heating Coil Efficiency
    ,                        !- Supplemental Gas Heating Coil Parasitic Electric Load {W}
    ,                        !- Dedicated Outdoor Air System Name
    SupplyAirTemperature,    !- Zone Cooling Design Supply Air Temperature Input Method
    14,                      !- Zone Cooling Design Supply Air Temperature {C}
    11.11,                   !- Zone Cooling Design Supply Air Temperature Difference {deltaC}
    SupplyAirTemperature,    !- Zone Heating Design Supply Air Temperature Input Method
    50,                      !- Zone Heating Design Supply Air Temperature {C}
    30,                      !- Zone Heating Design Supply Air Temperature Difference {deltaC}
    ,                        !- Design Specification Outdoor Air Object Name
    ,                        !- Design Specification Zone Air Distribution Object Name
    None,                    !- Baseboard Heating Type
    ,                        !- Baseboard Heating Availability Schedule Name
    autosize,                !- Baseboard Heating Capacity {W}
    None;                    !- Capacity Control Method


!-   ===========  ALL OBJECTS IN CLASS: HVACTEMPLATE:ZONE:WATERTOAIRHEATPUMP ===========

HVACTemplate:Zone:WaterToAirHeatPump,
    ,                        !- Zone Name
    ,                        !- Template Thermostat Name
    autosize,                !- Cooling Supply Air Flow Rate {m3/s}
    autosize,                !- Heating Supply Air Flow Rate {m3/s}
    ,                        !- No Load Supply Air Flow Rate {m3/s}
    ,                        !- Zone Heating Sizing Factor
    ,                        !- Zone Cooling Sizing Factor
    Flow/Person,             !- Outdoor Air Method
    0.00944,                 !- Outdoor Air Flow Rate per Person {m3/s}
    ,                        !- Outdoor Air Flow Rate per Zone Floor Area {m3/s-m2}
    ,                        !- Outdoor Air Flow Rate per Zone {m3/s}
    ,                        !- System Availability Schedule Name
    ,                        !- Supply Fan Operating Mode Schedule Name
    DrawThrough,             !- Supply Fan Placement
    0.7,                     !- Supply Fan Total Efficiency
    75,                      !- Supply Fan Delta Pressure {Pa}
    0.9,                     !- Supply Fan Motor Efficiency
    Coil:Cooling:WaterToAirHeatPump:EquationFit,  !- Cooling Coil Type
    autosize,                !- Cooling Coil Gross Rated Total Capacity {W}
    autosize,                !- Cooling Coil Gross Rated Sensible Heat Ratio
    3.5,                     !- Cooling Coil Gross Rated COP {W/W}
    Coil:Heating:WaterToAirHeatPump:EquationFit,  !- Heat Pump Heating Coil Type
    autosize,                !- Heat Pump Heating Coil Gross Rated Capacity {W}
    4.2,                     !- Heat Pump Heating Coil Gross Rated COP {W/W}
    ,                        !- Supplemental Heating Coil Availability Schedule Name
    autosize,                !- Supplemental Heating Coil Capacity {W}
    2.5,                     !- Maximum Cycling Rate {cycles/hr}
    60,                      !- Heat Pump Time Constant {s}
    0.01,                    !- Fraction of On-Cycle Power Use
    60,                      !- Heat Pump Fan Delay Time {s}
    ,                        !- Dedicated Outdoor Air System Name
    Electric,                !- Supplemental Heating Coil Type
    SupplyAirTemperature,    !- Zone Cooling Design Supply Air Temperature Input Method
    14,                      !- Zone Cooling Design Supply Air Temperature {C}
    11.11,                   !- Zone Cooling Design Supply Air Temperature Difference {deltaC}
    SupplyAirTemperature,    !- Zone Heating Design Supply Air Temperature Input Method
    50,                      !- Zone Heating Design Supply Air Temperature {C}
    30,                      !- Zone Heating Design Supply Air Temperature Difference {deltaC}
    Cycling,                 !- Heat Pump Coil Water Flow Mode
    ,                        !- Design Specification Outdoor Air Object Name
    ,                        !- Design Specification Zone Air Distribution Object Name
    None,                    !- Baseboard Heating Type
    ,                        !- Baseboard Heating Availability Schedule Name
    autosize;                !- Baseboard Heating Capacity {W}


!-   ===========  ALL OBJECTS IN CLASS: HVACTEMPLATE:ZONE:VRF ===========

HVACTemplate:Zone:VRF,
    ,                        !- Zone Name
    ,                        !- Template VRF System Name
    ,                        !- Template Thermostat Name
    ,                        !- Zone Heating Sizing Factor
    ,                        !- Zone Cooling Sizing Factor
    1,                       !- Rated Total Heating Capacity Sizing Ratio {W/W}
    autosize,                !- Cooling Supply Air Flow Rate {m3/s}
    autosize,                !- No Cooling Supply Air Flow Rate {m3/s}
    autosize,                !- Heating Supply Air Flow Rate {m3/s}
    autosize,                !- No Heating Supply Air Flow Rate {m3/s}
    autosize,                !- Cooling Outdoor Air Flow Rate {m3/s}
    autosize,                !- Heating Outdoor Air Flow Rate {m3/s}
    autosize,                !- No Load Outdoor Air Flow Rate {m3/s}
    Flow/Person,             !- Outdoor Air Method
    0.00944,                 !- Outdoor Air Flow Rate per Person {m3/s}
    ,                        !- Outdoor Air Flow Rate per Zone Floor Area {m3/s-m2}
    ,                        !- Outdoor Air Flow Rate per Zone {m3/s}
    ,                        !- Design Specification Outdoor Air Object Name
    ,                        !- Design Specification Zone Air Distribution Object Name
    ,                        !- System Availability Schedule Name
    ,                        !- Supply Fan Operating Mode Schedule Name
    BlowThrough,             !- Supply Air Fan placement
    0.7,                     !- Supply Fan Total Efficiency
    75,                      !- Supply Fan Delta Pressure {Pa}
    0.9,                     !- Supply Fan Motor Efficiency
    VariableRefrigerantFlowDX,  !- Cooling Coil Type
    ,                        !- Cooling Coil Availability Schedule Name
    autosize,                !- Cooling Coil Gross Rated Total Capacity {W}
    autosize,                !- Cooling Coil Gross Rated Sensible Heat Ratio
    VariableRefrigerantFlowDX,  !- Heat Pump Heating Coil Type
    ,                        !- Heat Pump Heating Coil Availability Schedule Name
    autosize,                !- Heat Pump Heating Coil Gross Rated Capacity {W}
    ,                        !- Zone Terminal Unit On Parasitic Electric Energy Use {W}
    ,                        !- Zone Terminal Unit Off Parasitic Electric Energy Use {W}
    ,                        !- Dedicated Outdoor Air System Name
    SupplyAirTemperature,    !- Zone Cooling Design Supply Air Temperature Input Method
    14,                      !- Zone Cooling Design Supply Air Temperature {C}
    11.11,                   !- Zone Cooling Design Supply Air Temperature Difference {deltaC}
    SupplyAirTemperature,    !- Zone Heating Design Supply Air Temperature Input Method
    50,                      !- Zone Heating Design Supply Air Temperature {C}
    30,                      !- Zone Heating Design Supply Air Temperature Difference {deltaC}
    None,                    !- Baseboard Heating Type
    ,                        !- Baseboard Heating Availability Schedule Name
    autosize;                !- Baseboard Heating Capacity {W}


!-   ===========  ALL OBJECTS IN CLASS: HVACTEMPLATE:ZONE:UNITARY ===========

HVACTemplate:Zone:Unitary,
    ,                        !- Zone Name
    ,                        !- Template Unitary System Name
    ,                        !- Template Thermostat Name
    autosize,                !- Supply Air Maximum Flow Rate {m3/s}
    ,                        !- Zone Heating Sizing Factor
    ,                        !- Zone Cooling Sizing Factor
    Flow/Person,             !- Outdoor Air Method
    0.00944,                 !- Outdoor Air Flow Rate per Person {m3/s}
    ,                        !- Outdoor Air Flow Rate per Zone Floor Area {m3/s-m2}
    ,                        !- Outdoor Air Flow Rate per Zone {m3/s}
    ,                        !- Supply Plenum Name
    ,                        !- Return Plenum Name
    None,                    !- Baseboard Heating Type
    ,                        !- Baseboard Heating Availability Schedule Name
    autosize,                !- Baseboard Heating Capacity {W}
    SystemSupplyAirTemperature,  !- Zone Cooling Design Supply Air Temperature Input Method
    12.8,                    !- Zone Cooling Design Supply Air Temperature {C}
    11.11,                   !- Zone Cooling Design Supply Air Temperature Difference {deltaC}
    SystemSupplyAirTemperature,  !- Zone Heating Design Supply Air Temperature Input Method
    50,                      !- Zone Heating Design Supply Air Temperature {C}
    30;                      !- Zone Heating Design Supply Air Temperature Difference {deltaC}


!-   ===========  ALL OBJECTS IN CLASS: HVACTEMPLATE:ZONE:VAV ===========

HVACTemplate:Zone:VAV,
    ,                        !- Zone Name
    ,                        !- Template VAV System Name
    ,                        !- Template Thermostat Name
    autosize,                !- Supply Air Maximum Flow Rate {m3/s}
    ,                        !- Zone Heating Sizing Factor
    ,                        !- Zone Cooling Sizing Factor
    Constant,                !- Zone Minimum Air Flow Input Method
    0.2,                     !- Constant Minimum Air Flow Fraction
    ,                        !- Fixed Minimum Air Flow Rate {m3/s}
    ,                        !- Minimum Air Flow Fraction Schedule Name
    Flow/Person,             !- Outdoor Air Method
    0.00944,                 !- Outdoor Air Flow Rate per Person {m3/s}
    ,                        !- Outdoor Air Flow Rate per Zone Floor Area {m3/s-m2}
    ,                        !- Outdoor Air Flow Rate per Zone {m3/s}
    None,                    !- Reheat Coil Type
    ,                        !- Reheat Coil Availability Schedule Name
    Reverse,                 !- Damper Heating Action
    ,                        !- Maximum Flow per Zone Floor Area During Reheat {m3/s-m2}
    ,                        !- Maximum Flow Fraction During Reheat
    ,                        !- Maximum Reheat Air Temperature {C}
    ,                        !- Design Specification Outdoor Air Object Name for Control
    ,                        !- Supply Plenum Name
    ,                        !- Return Plenum Name
    None,                    !- Baseboard Heating Type
    ,                        !- Baseboard Heating Availability Schedule Name
    autosize,                !- Baseboard Heating Capacity {W}
    SystemSupplyAirTemperature,  !- Zone Cooling Design Supply Air Temperature Input Method
    12.8,                    !- Zone Cooling Design Supply Air Temperature {C}
    11.11,                   !- Zone Cooling Design Supply Air Temperature Difference {deltaC}
    SupplyAirTemperature,    !- Zone Heating Design Supply Air Temperature Input Method
    50,                      !- Zone Heating Design Supply Air Temperature {C}
    30;                      !- Zone Heating Design Supply Air Temperature Difference {deltaC}


!-   ===========  ALL OBJECTS IN CLASS: HVACTEMPLATE:ZONE:VAV:FANPOWERED ===========

HVACTemplate:Zone:VAV:FanPowered,
    ,                        !- Zone Name
    ,                        !- Template VAV System Name
    ,                        !- Template Thermostat Name
    autosize,                !- Primary Supply Air Maximum Flow Rate {m3/s}
    ,                        !- Zone Heating Sizing Factor
    ,                        !- Zone Cooling Sizing Factor
    autosize,                !- Primary Supply Air Minimum Flow Fraction
    autosize,                !- Secondary Supply Air Maximum Flow Rate {m3/s}
    Parallel,                !- Flow Type
    autosize,                !- Parallel Fan On Flow Fraction
    Flow/Person,             !- Outdoor Air Method
    0.00944,                 !- Outdoor Air Flow Rate per Person {m3/s}
    ,                        !- Outdoor Air Flow Rate per Zone Floor Area {m3/s-m2}
    ,                        !- Outdoor Air Flow Rate per Zone {m3/s}
    Electric,                !- Reheat Coil Type
    ,                        !- Reheat Coil Availability Schedule Name
    0.7,                     !- Fan Total Efficiency
    1000,                    !- Fan Delta Pressure {Pa}
    0.9,                     !- Fan Motor Efficiency
    ,                        !- Supply Plenum Name
    ,                        !- Return Plenum Name
    None,                    !- Baseboard Heating Type
    ,                        !- Baseboard Heating Availability Schedule Name
    autosize,                !- Baseboard Heating Capacity {W}
    SystemSupplyAirTemperature,  !- Zone Cooling Design Supply Air Temperature Input Method
    12.8,                    !- Zone Cooling Design Supply Air Temperature {C}
    11.11,                   !- Zone Cooling Design Supply Air Temperature Difference {deltaC}
    SupplyAirTemperature,    !- Zone Heating Design Supply Air Temperature Input Method
    50,                      !- Zone Heating Design Supply Air Temperature {C}
    30,                      !- Zone Heating Design Supply Air Temperature Difference {deltaC}
    ;                        !- Zone PIU Fan Schedule Name


!-   ===========  ALL OBJECTS IN CLASS: HVACTEMPLATE:ZONE:VAV:HEATANDCOOL ===========

HVACTemplate:Zone:VAV:HeatAndCool,
    ,                        !- Zone Name
    ,                        !- Template VAV System Name
    ,                        !- Template Thermostat Name
    autosize,                !- Supply Air Maximum Flow Rate {m3/s}
    ,                        !- Zone Heating Sizing Factor
    ,                        !- Zone Cooling Sizing Factor
    0.2,                     !- Constant Minimum Air Flow Fraction
    Flow/Person,             !- Outdoor Air Method
    0.00944,                 !- Outdoor Air Flow Rate per Person {m3/s}
    ,                        !- Outdoor Air Flow Rate per Zone Floor Area {m3/s-m2}
    ,                        !- Outdoor Air Flow Rate per Zone {m3/s}
    ,                        !- Design Specification Outdoor Air Object Name for Sizing
    ,                        !- Design Specification Zone Air Distribution Object Name
    None,                    !- Reheat Coil Type
    ,                        !- Reheat Coil Availability Schedule Name
    ,                        !- Maximum Reheat Air Temperature {C}
    ,                        !- Supply Plenum Name
    ,                        !- Return Plenum Name
    None,                    !- Baseboard Heating Type
    ,                        !- Baseboard Heating Availability Schedule Name
    autosize,                !- Baseboard Heating Capacity {W}
    SystemSupplyAirTemperature,  !- Zone Cooling Design Supply Air Temperature Input Method
    12.8,                    !- Zone Cooling Design Supply Air Temperature {C}
    11.11,                   !- Zone Cooling Design Supply Air Temperature Difference {deltaC}
    SupplyAirTemperature,    !- Zone Heating Design Supply Air Temperature Input Method
    50,                      !- Zone Heating Design Supply Air Temperature {C}
    30;                      !- Zone Heating Design Supply Air Temperature Difference {deltaC}


!-   ===========  ALL OBJECTS IN CLASS: HVACTEMPLATE:ZONE:CONSTANTVOLUME ===========

HVACTemplate:Zone:ConstantVolume,
    ,                        !- Zone Name
    ,                        !- Template Constant Volume System Name
    ,                        !- Template Thermostat Name
    autosize,                !- Supply Air Maximum Flow Rate {m3/s}
    ,                        !- Zone Heating Sizing Factor
    ,                        !- Zone Cooling Sizing Factor
    Flow/Person,             !- Outdoor Air Method
    0.00944,                 !- Outdoor Air Flow Rate per Person {m3/s}
    ,                        !- Outdoor Air Flow Rate per Zone Floor Area {m3/s-m2}
    ,                        !- Outdoor Air Flow Rate per Zone {m3/s}
    ,                        !- Design Specification Outdoor Air Object name
    ,                        !- Design Specification Zone Air Distribution Object Name
    None,                    !- Reheat Coil Type
    ,                        !- Reheat Coil Availability Schedule Name
    ,                        !- Maximum Reheat Air Temperature {C}
    ,                        !- Supply Plenum Name
    ,                        !- Return Plenum Name
    None,                    !- Baseboard Heating Type
    ,                        !- Baseboard Heating Availability Schedule Name
    autosize,                !- Baseboard Heating Capacity {W}
    SystemSupplyAirTemperature,  !- Zone Cooling Design Supply Air Temperature Input Method
    12.8,                    !- Zone Cooling Design Supply Air Temperature {C}
    11.11,                   !- Zone Cooling Design Supply Air Temperature Difference {deltaC}
    SupplyAirTemperature,    !- Zone Heating Design Supply Air Temperature Input Method
    50,                      !- Zone Heating Design Supply Air Temperature {C}
    30;                      !- Zone Heating Design Supply Air Temperature Difference {deltaC}


!-   ===========  ALL OBJECTS IN CLASS: HVACTEMPLATE:ZONE:DUALDUCT ===========

HVACTemplate:Zone:DualDuct,
    ,                        !- Zone Name
    ,                        !- Template Dual Duct System Name
    ,                        !- Template Thermostat Name
    autosize,                !- Supply Air Maximum Flow Rate {m3/s}
    ,                        !- Zone Heating Sizing Factor
    ,                        !- Zone Cooling Sizing Factor
    0.2,                     !- Zone Minimum Air Flow Fraction
    Flow/Person,             !- Outdoor Air Method
    0.00944,                 !- Outdoor Air Flow Rate per Person {m3/s}
    ,                        !- Outdoor Air Flow Rate per Zone Floor Area {m3/s-m2}
    ,                        !- Outdoor Air Flow Rate per Zone {m3/s}
    ,                        !- Design Specification Outdoor Air Object Name for Sizing
    ,                        !- Design Specification Zone Air Distribution Object Name
    ,                        !- Design Specification Outdoor Air Object Name for Control
    ,                        !- Cold Supply Plenum Name
    ,                        !- Hot Supply Plenum Name
    ,                        !- Return Plenum Name
    None,                    !- Baseboard Heating Type
    ,                        !- Baseboard Heating Availability Schedule Name
    autosize,                !- Baseboard Heating Capacity {W}
    SystemSupplyAirTemperature,  !- Zone Cooling Design Supply Air Temperature Input Method
    12.8,                    !- Zone Cooling Design Supply Air Temperature {C}
    11.11,                   !- Zone Cooling Design Supply Air Temperature Difference {deltaC}
    SystemSupplyAirTemperature,  !- Zone Heating Design Supply Air Temperature Input Method
    50,                      !- Zone Heating Design Supply Air Temperature {C}
    30;                      !- Zone Heating Design Supply Air Temperature Difference {deltaC}


!-   ===========  ALL OBJECTS IN CLASS: HVACTEMPLATE:SYSTEM:VRF ===========

HVACTemplate:System:VRF,
    ,                        !- Name
    ,                        !- System Availability Schedule Name
    autosize,                !- Gross Rated Total Cooling Capacity {W}
    3.3,                     !- Gross Rated Cooling COP {W/W}
    -6,                      !- Minimum Outdoor Temperature in Cooling Mode {C}
    43,                      !- Maximum Outdoor Temperature in Cooling Mode {C}
    autosize,                !- Gross Rated Heating Capacity {W}
    1,                       !- Rated Heating Capacity Sizing Ratio {W/W}
    3.4,                     !- Gross Rated Heating COP {W/W}
    -20,                     !- Minimum Outdoor Temperature in Heating Mode {C}
    16,                      !- Maximum Outdoor Temperature in Heating Mode {C}
    0.15,                    !- Minimum Heat Pump Part-Load Ratio {dimensionless}
    ,                        !- Zone Name for Master Thermostat Location
    MasterThermostatPriority,!- Master Thermostat Priority Control Type
    ,                        !- Thermostat Priority Schedule Name
    No,                      !- Heat Pump Waste Heat Recovery
    30,                      !- Equivalent Piping Length used for Piping Correction Factor in Cooling Mode {m}
    10,                      !- Vertical Height used for Piping Correction Factor {m}
    30,                      !- Equivalent Piping Length used for Piping Correction Factor in Heating Mode {m}
    33,                      !- Crankcase Heater Power per Compressor {W}
    2,                       !- Number of Compressors {dimensionless}
    0.5,                     !- Ratio of Compressor Size to Total Compressor Capacity {W/W}
    5,                       !- Maximum Outdoor Dry-bulb Temperature for Crankcase Heater {C}
    Resistive,               !- Defrost Strategy
    Timed,                   !- Defrost Control
    0.058333,                !- Defrost Time Period Fraction {dimensionless}
    autosize,                !- Resistive Defrost Heater Capacity {W}
    5,                       !- Maximum Outdoor Dry-bulb Temperature for Defrost Operation {C}
    AirCooled,               !- Condenser Type
    autosize,                !- Water Condenser Volume Flow Rate {m3/s}
    0.9,                     !- Evaporative Condenser Effectiveness {dimensionless}
    autosize,                !- Evaporative Condenser Air Flow Rate {m3/s}
    ,                        !- Evaporative Condenser Pump Rated Power Consumption {W}
    ,                        !- Basin Heater Capacity {W/K}
    2,                       !- Basin Heater Setpoint Temperature {C}
    ,                        !- Basin Heater Operating Schedule Name
    Electricity,             !- Fuel Type
    -15,                     !- Minimum Outdoor Temperature in Heat Recovery Mode {C}
    45;                      !- Maximum Outdoor Temperature in Heat Recovery Mode {C}


!-   ===========  ALL OBJECTS IN CLASS: HVACTEMPLATE:SYSTEM:UNITARY ===========

HVACTemplate:System:Unitary,
    ,                        !- Name
    ,                        !- System Availability Schedule Name
    ,                        !- Control Zone or Thermostat Location Name
    autosize,                !- Supply Fan Maximum Flow Rate {m3/s}
    ,                        !- Supply Fan Operating Mode Schedule Name
    0.7,                     !- Supply Fan Total Efficiency
    600,                     !- Supply Fan Delta Pressure {Pa}
    0.9,                     !- Supply Fan Motor Efficiency
    1,                       !- Supply Fan Motor in Air Stream Fraction
    SingleSpeedDX,           !- Cooling Coil Type
    ,                        !- Cooling Coil Availability Schedule Name
    12.8,                    !- Cooling Design Supply Air Temperature {C}
    autosize,                !- Cooling Coil Gross Rated Total Capacity {W}
    autosize,                !- Cooling Coil Gross Rated Sensible Heat Ratio
    3,                       !- Cooling Coil Gross Rated COP {W/W}
    ,                        !- Heating Coil Type
    ,                        !- Heating Coil Availability Schedule Name
    50,                      !- Heating Design Supply Air Temperature {C}
    autosize,                !- Heating Coil Capacity {W}
    0.8,                     !- Gas Heating Coil Efficiency
    ,                        !- Gas Heating Coil Parasitic Electric Load {W}
    autosize,                !- Maximum Outdoor Air Flow Rate {m3/s}
    autosize,                !- Minimum Outdoor Air Flow Rate {m3/s}
    ,                        !- Minimum Outdoor Air Schedule Name
    NoEconomizer,            !- Economizer Type
    NoLockout,               !- Economizer Lockout
    ,                        !- Economizer Upper Temperature Limit {C}
    ,                        !- Economizer Lower Temperature Limit {C}
    ,                        !- Economizer Upper Enthalpy Limit {J/kg}
    ,                        !- Economizer Maximum Limit Dewpoint Temperature {C}
    ,                        !- Supply Plenum Name
    ,                        !- Return Plenum Name
    BlowThrough,             !- Supply Fan Placement
    StayOff,                 !- Night Cycle Control
    ,                        !- Night Cycle Control Zone Name
    None,                    !- Heat Recovery Type
    0.7,                     !- Sensible Heat Recovery Effectiveness
    0.65,                    !- Latent Heat Recovery Effectiveness
    None,                    !- Dehumidification Control Type
    60,                      !- Dehumidification Setpoint {percent}
    None,                    !- Humidifier Type
    ,                        !- Humidifier Availability Schedule Name
    0.000001,                !- Humidifier Rated Capacity {m3/s}
    autosize,                !- Humidifier Rated Electric Power {W}
    ,                        !- Humidifier Control Zone Name
    30,                      !- Humidifier Setpoint {percent}
    No,                      !- Return Fan
    0.7,                     !- Return Fan Total Efficiency
    500,                     !- Return Fan Delta Pressure {Pa}
    0.9,                     !- Return Fan Motor Efficiency
    1;                       !- Return Fan Motor in Air Stream Fraction


!-   ===========  ALL OBJECTS IN CLASS: HVACTEMPLATE:SYSTEM:UNITARYHEATPUMP:AIRTOAIR ===========

HVACTemplate:System:UnitaryHeatPump:AirToAir,
    ,                        !- Name
    ,                        !- System Availability Schedule Name
    ,                        !- Control Zone or Thermostat Location Name
    autosize,                !- Cooling Supply Air Flow Rate {m3/s}
    autosize,                !- Heating Supply Air Flow Rate {m3/s}
    autosize,                !- No Load Supply Air Flow Rate {m3/s}
    ,                        !- Supply Fan Operating Mode Schedule Name
    BlowThrough,             !- Supply Fan Placement
    0.7,                     !- Supply Fan Total Efficiency
    600,                     !- Supply Fan Delta Pressure {Pa}
    0.9,                     !- Supply Fan Motor Efficiency
    1,                       !- Supply Fan Motor in Air Stream Fraction
    SingleSpeedDX,           !- Cooling Coil Type
    ,                        !- Cooling Coil Availability Schedule Name
    12.8,                    !- Cooling Design Supply Air Temperature {C}
    autosize,                !- Cooling Coil Gross Rated Total Capacity {W}
    autosize,                !- Cooling Coil Gross Rated Sensible Heat Ratio
    3,                       !- Cooling Coil Gross Rated COP {W/W}
    SingleSpeedDXHeatPump,   !- Heat Pump Heating Coil Type
    ,                        !- Heat Pump Heating Coil Availability Schedule Name
    50,                      !- Heating Design Supply Air Temperature {C}
    autosize,                !- Heat Pump Heating Coil Gross Rated Capacity {W}
    2.75,                    !- Heat Pump Heating Coil Rated COP {W/W}
    -8,                      !- Heat Pump Heating Minimum Outdoor Dry-Bulb Temperature {C}
    5,                       !- Heat Pump Defrost Maximum Outdoor Dry-Bulb Temperature {C}
    ReverseCycle,            !- Heat Pump Defrost Strategy
    Timed,                   !- Heat Pump Defrost Control
    0.058333,                !- Heat Pump Defrost Time Period Fraction
    Electric,                !- Supplemental Heating Coil Type
    ,                        !- Supplemental Heating Coil Availability Schedule Name
    autosize,                !- Supplemental Heating Coil Capacity {W}
    21,                      !- Supplemental Heating Coil Maximum Outdoor Dry-Bulb Temperature {C}
    0.8,                     !- Supplemental Gas Heating Coil Efficiency
    ,                        !- Supplemental Gas Heating Coil Parasitic Electric Load {W}
    autosize,                !- Maximum Outdoor Air Flow Rate {m3/s}
    autosize,                !- Minimum Outdoor Air Flow Rate {m3/s}
    ,                        !- Minimum Outdoor Air Schedule Name
    NoEconomizer,            !- Economizer Type
    NoLockout,               !- Economizer Lockout
    ,                        !- Economizer Maximum Limit Dry-Bulb Temperature {C}
    ,                        !- Economizer Maximum Limit Enthalpy {J/kg}
    ,                        !- Economizer Maximum Limit Dewpoint Temperature {C}
    ,                        !- Economizer Minimum Limit Dry-Bulb Temperature {C}
    ,                        !- Supply Plenum Name
    ,                        !- Return Plenum Name
    StayOff,                 !- Night Cycle Control
    ,                        !- Night Cycle Control Zone Name
    None,                    !- Heat Recovery Type
    0.7,                     !- Sensible Heat Recovery Effectiveness
    0.65,                    !- Latent Heat Recovery Effectiveness
    None,                    !- Humidifier Type
    ,                        !- Humidifier Availability Schedule Name
    0.000001,                !- Humidifier Rated Capacity {m3/s}
    autosize,                !- Humidifier Rated Electric Power {W}
    ,                        !- Humidifier Control Zone Name
    30,                      !- Humidifier Setpoint {percent}
    No,                      !- Return Fan
    0.7,                     !- Return Fan Total Efficiency
    500,                     !- Return Fan Delta Pressure {Pa}
    0.9,                     !- Return Fan Motor Efficiency
    1;                       !- Return Fan Motor in Air Stream Fraction


!-   ===========  ALL OBJECTS IN CLASS: HVACTEMPLATE:SYSTEM:UNITARYSYSTEM ===========

HVACTemplate:System:UnitarySystem,
    ,                        !- Name
    ,                        !- System Availability Schedule Name
    Load,                    !- Control Type
    ,                        !- Control Zone or Thermostat Location Name
    autosize,                !- Cooling Supply Air Flow Rate {m3/s}
    autosize,                !- Heating Supply Air Flow Rate {m3/s}
    autosize,                !- No Load Supply Air Flow Rate {m3/s}
    ,                        !- Supply Fan Operating Mode Schedule Name
    BlowThrough,             !- Supply Fan Placement
    0.7,                     !- Supply Fan Total Efficiency
    600,                     !- Supply Fan Delta Pressure {Pa}
    0.9,                     !- Supply Fan Motor Efficiency
    1,                       !- Supply Fan Motor in Air Stream Fraction
    SingleSpeedDX,           !- Cooling Coil Type
    1,                       !- Number of Speeds for Cooling
    ,                        !- Cooling Coil Availability Schedule Name
    12.8,                    !- Cooling Design Supply Air Temperature {C}
    autosize,                !- DX Cooling Coil Gross Rated Total Capacity {W}
    autosize,                !- DX Cooling Coil Gross Rated Sensible Heat Ratio
    3,                       !- DX Cooling Coil Gross Rated COP {W/W}
    Gas,                     !- Heating Coil Type
    1,                       !- Number of Speeds or Stages for Heating
    ,                        !- Heating Coil Availability Schedule Name
    50,                      !- Heating Design Supply Air Temperature {C}
    autosize,                !- Heating Coil Gross Rated Capacity {W}
    0.8,                     !- Gas Heating Coil Efficiency
    ,                        !- Gas Heating Coil Parasitic Electric Load {W}
    2.75,                    !- Heat Pump Heating Coil Gross Rated COP {W/W}
    -8,                      !- Heat Pump Heating Minimum Outdoor Dry-Bulb Temperature {C}
    5,                       !- Heat Pump Defrost Maximum Outdoor Dry-Bulb Temperature {C}
    ReverseCycle,            !- Heat Pump Defrost Strategy
    Timed,                   !- Heat Pump Defrost Control
    0.058333,                !- Heat Pump Defrost Time Period Fraction
    None,                    !- Supplemental Heating or Reheat Coil Type
    ,                        !- Supplemental Heating or Reheat Coil Availability Schedule Name
    autosize,                !- Supplemental Heating or Reheat Coil Capacity {W}
    21,                      !- Supplemental Heating or Reheat Coil Maximum Outdoor Dry-Bulb Temperature {C}
    0.8,                     !- Supplemental Gas Heating or Reheat Coil Efficiency
    ,                        !- Supplemental Gas Heating or Reheat Coil Parasitic Electric Load {W}
    autosize,                !- Maximum Outdoor Air Flow Rate {m3/s}
    autosize,                !- Minimum Outdoor Air Flow Rate {m3/s}
    ,                        !- Minimum Outdoor Air Schedule Name
    NoEconomizer,            !- Economizer Type
    NoLockout,               !- Economizer Lockout
    ,                        !- Economizer Maximum Limit Dry-Bulb Temperature {C}
    ,                        !- Economizer Maximum Limit Enthalpy {J/kg}
    ,                        !- Economizer Maximum Limit Dewpoint Temperature {C}
    ,                        !- Economizer Minimum Limit Dry-Bulb Temperature {C}
    ,                        !- Supply Plenum Name
    ,                        !- Return Plenum Name
    None,                    !- Heat Recovery Type
    0.7,                     !- Sensible Heat Recovery Effectiveness
    0.65,                    !- Latent Heat Recovery Effectiveness
    Plate,                   !- Heat Recovery Heat Exchanger Type
    None,                    !- Heat Recovery Frost Control Type
    None,                    !- Dehumidification Control Type
    60,                      !- Dehumidification Relative Humidity Setpoint {percent}
    ,                        !- Dehumidification Relative Humidity Setpoint Schedule Name
    None,                    !- Humidifier Type
    ,                        !- Humidifier Availability Schedule Name
    0.000001,                !- Humidifier Rated Capacity {m3/s}
    autosize,                !- Humidifier Rated Electric Power {W}
    ,                        !- Humidifier Control Zone Name
    30,                      !- Humidifier Relative Humidity Setpoint {percent}
    ,                        !- Humidifier Relative Humidity Setpoint Schedule Name
    NonCoincident,           !- Sizing Option
    No,                      !- Return Fan
    0.7,                     !- Return Fan Total Efficiency
    300,                     !- Return Fan Delta Pressure {Pa}
    0.9,                     !- Return Fan Motor Efficiency
    1;                       !- Return Fan Motor in Air Stream Fraction


!-   ===========  ALL OBJECTS IN CLASS: HVACTEMPLATE:SYSTEM:VAV ===========

HVACTemplate:System:VAV,
    ,                        !- Name
    ,                        !- System Availability Schedule Name
    autosize,                !- Supply Fan Maximum Flow Rate {m3/s}
    autosize,                !- Supply Fan Minimum Flow Rate {m3/s}
    0.7,                     !- Supply Fan Total Efficiency
    1000,                    !- Supply Fan Delta Pressure {Pa}
    0.9,                     !- Supply Fan Motor Efficiency
    1,                       !- Supply Fan Motor in Air Stream Fraction
    ChilledWater,            !- Cooling Coil Type
    ,                        !- Cooling Coil Availability Schedule Name
    ,                        !- Cooling Coil Setpoint Schedule Name
    12.8,                    !- Cooling Coil Design Setpoint {C}
    None,                    !- Heating Coil Type
    ,                        !- Heating Coil Availability Schedule Name
    ,                        !- Heating Coil Setpoint Schedule Name
    10,                      !- Heating Coil Design Setpoint {C}
    0.8,                     !- Gas Heating Coil Efficiency
    ,                        !- Gas Heating Coil Parasitic Electric Load {W}
    None,                    !- Preheat Coil Type
    ,                        !- Preheat Coil Availability Schedule Name
    ,                        !- Preheat Coil Setpoint Schedule Name
    7.2,                     !- Preheat Coil Design Setpoint {C}
    0.8,                     !- Gas Preheat Coil Efficiency
    ,                        !- Gas Preheat Coil Parasitic Electric Load {W}
    autosize,                !- Maximum Outdoor Air Flow Rate {m3/s}
    autosize,                !- Minimum Outdoor Air Flow Rate {m3/s}
    ProportionalMinimum,     !- Minimum Outdoor Air Control Type
    ,                        !- Minimum Outdoor Air Schedule Name
    NoEconomizer,            !- Economizer Type
    NoLockout,               !- Economizer Lockout
    ,                        !- Economizer Upper Temperature Limit {C}
    ,                        !- Economizer Lower Temperature Limit {C}
    ,                        !- Economizer Upper Enthalpy Limit {J/kg}
    ,                        !- Economizer Maximum Limit Dewpoint Temperature {C}
    ,                        !- Supply Plenum Name
    ,                        !- Return Plenum Name
    DrawThrough,             !- Supply Fan Placement
    InletVaneDampers,        !- Supply Fan Part-Load Power Coefficients
    StayOff,                 !- Night Cycle Control
    ,                        !- Night Cycle Control Zone Name
    None,                    !- Heat Recovery Type
    0.7,                     !- Sensible Heat Recovery Effectiveness
    0.65,                    !- Latent Heat Recovery Effectiveness
    None,                    !- Cooling Coil Setpoint Reset Type
    None,                    !- Heating Coil Setpoint Reset Type
    None,                    !- Dehumidification Control Type
    ,                        !- Dehumidification Control Zone Name
    60,                      !- Dehumidification Setpoint {percent}
    None,                    !- Humidifier Type
    ,                        !- Humidifier Availability Schedule Name
    0.000001,                !- Humidifier Rated Capacity {m3/s}
    autosize,                !- Humidifier Rated Electric Power {W}
    ,                        !- Humidifier Control Zone Name
    30,                      !- Humidifier Setpoint {percent}
    NonCoincident,           !- Sizing Option
    No,                      !- Return Fan
    0.7,                     !- Return Fan Total Efficiency
    500,                     !- Return Fan Delta Pressure {Pa}
    0.9,                     !- Return Fan Motor Efficiency
    1,                       !- Return Fan Motor in Air Stream Fraction
    InletVaneDampers;        !- Return Fan Part-Load Power Coefficients


!-   ===========  ALL OBJECTS IN CLASS: HVACTEMPLATE:SYSTEM:PACKAGEDVAV ===========

HVACTemplate:System:PackagedVAV,
    ,                        !- Name
    ,                        !- System Availability Schedule Name
    autosize,                !- Supply Fan Maximum Flow Rate {m3/s}
    autosize,                !- Supply Fan Minimum Flow Rate {m3/s}
    DrawThrough,             !- Supply Fan Placement
    0.7,                     !- Supply Fan Total Efficiency
    1000,                    !- Supply Fan Delta Pressure {Pa}
    0.9,                     !- Supply Fan Motor Efficiency
    1,                       !- Supply Fan Motor in Air Stream Fraction
    TwoSpeedDX,              !- Cooling Coil Type
    ,                        !- Cooling Coil Availability Schedule Name
    ,                        !- Cooling Coil Setpoint Schedule Name
    12.8,                    !- Cooling Coil Design Setpoint {C}
    autosize,                !- Cooling Coil Gross Rated Total Capacity {W}
    autosize,                !- Cooling Coil Gross Rated Sensible Heat Ratio
    3,                       !- Cooling Coil Gross Rated COP {W/W}
    None,                    !- Heating Coil Type
    ,                        !- Heating Coil Availability Schedule Name
    ,                        !- Heating Coil Setpoint Schedule Name
    10,                      !- Heating Coil Design Setpoint {C}
    autosize,                !- Heating Coil Capacity {W}
    0.8,                     !- Gas Heating Coil Efficiency
    ,                        !- Gas Heating Coil Parasitic Electric Load {W}
    autosize,                !- Maximum Outdoor Air Flow Rate {m3/s}
    autosize,                !- Minimum Outdoor Air Flow Rate {m3/s}
    ProportionalMinimum,     !- Minimum Outdoor Air Control Type
    ,                        !- Minimum Outdoor Air Schedule Name
    NoEconomizer,            !- Economizer Type
    NoLockout,               !- Economizer Lockout
    ,                        !- Economizer Maximum Limit Dry-Bulb Temperature {C}
    ,                        !- Economizer Maximum Limit Enthalpy {J/kg}
    ,                        !- Economizer Maximum Limit Dewpoint Temperature {C}
    ,                        !- Economizer Minimum Limit Dry-Bulb Temperature {C}
    ,                        !- Supply Plenum Name
    ,                        !- Return Plenum Name
    InletVaneDampers,        !- Supply Fan Part-Load Power Coefficients
    StayOff,                 !- Night Cycle Control
    ,                        !- Night Cycle Control Zone Name
    None,                    !- Heat Recovery Type
    0.7,                     !- Sensible Heat Recovery Effectiveness
    0.65,                    !- Latent Heat Recovery Effectiveness
    None,                    !- Cooling Coil Setpoint Reset Type
    None,                    !- Heating Coil Setpoint Reset Type
    None,                    !- Dehumidification Control Type
    ,                        !- Dehumidification Control Zone Name
    60,                      !- Dehumidification Setpoint {percent}
    None,                    !- Humidifier Type
    ,                        !- Humidifier Availability Schedule Name
    0.000001,                !- Humidifier Rated Capacity {m3/s}
    autosize,                !- Humidifier Rated Electric Power {W}
    ,                        !- Humidifier Control Zone Name
    30,                      !- Humidifier Setpoint {percent}
    NonCoincident,           !- Sizing Option
    No,                      !- Return Fan
    0.7,                     !- Return Fan Total Efficiency
    500,                     !- Return Fan Delta Pressure {Pa}
    0.9,                     !- Return Fan Motor Efficiency
    1,                       !- Return Fan Motor in Air Stream Fraction
    InletVaneDampers;        !- Return Fan Part-Load Power Coefficients


!-   ===========  ALL OBJECTS IN CLASS: HVACTEMPLATE:SYSTEM:CONSTANTVOLUME ===========

HVACTemplate:System:ConstantVolume,
    ,                        !- Name
    ,                        !- System Availability Schedule Name
    autosize,                !- Supply Fan Maximum Flow Rate {m3/s}
    0.7,                     !- Supply Fan Total Efficiency
    600,                     !- Supply Fan Delta Pressure {Pa}
    0.9,                     !- Supply Fan Motor Efficiency
    1,                       !- Supply Fan Motor in Air Stream Fraction
    DrawThrough,             !- Supply Fan Placement
    ChilledWater,            !- Cooling Coil Type
    ,                        !- Cooling Coil Availability Schedule Name
    FixedSetpoint,           !- Cooling Coil Setpoint Control Type
    ,                        !- Cooling Coil Control Zone name
    12.8,                    !- Cooling Coil Design Setpoint Temperature {C}
    ,                        !- Cooling Coil Setpoint Schedule Name
    15.6,                    !- Cooling Coil Setpoint at Outdoor Dry-Bulb Low {C}
    15.6,                    !- Cooling Coil Reset Outdoor Dry-Bulb Low {C}
    12.8,                    !- Cooling Coil Setpoint at Outdoor Dry-Bulb High {C}
    23.3,                    !- Cooling Coil Reset Outdoor Dry-Bulb High {C}
    HotWater,                !- Heating Coil Type
    ,                        !- Heating Coil Availability Schedule Name
    FixedSetpoint,           !- Heating Coil Setpoint Control Type
    ,                        !- Heating Coil Control Zone name
    10,                      !- Heating Coil Design Setpoint {C}
    ,                        !- Heating Coil Setpoint Schedule Name
    15,                      !- Heating Coil Setpoint at Outdoor Dry-Bulb Low {C}
    7.8,                     !- Heating Coil Reset Outdoor Dry-Bulb Low {C}
    12.2,                    !- Heating Coil Setpoint at Outdoor Dry-Bulb High {C}
    12.2,                    !- Heating Coil Reset Outdoor Dry-Bulb High {C}
    autosize,                !- Heating Coil Capacity {W}
    0.8,                     !- Gas Heating Coil Efficiency
    ,                        !- Gas Heating Coil Parasitic Electric Load {W}
    None,                    !- Preheat Coil Type
    ,                        !- Preheat Coil Availability Schedule Name
    7.2,                     !- Preheat Coil Design Setpoint {C}
    ,                        !- Preheat Coil Setpoint Schedule Name
    0.8,                     !- Gas Preheat Coil Efficiency
    ,                        !- Gas Preheat Coil Parasitic Electric Load {W}
    autosize,                !- Maximum Outdoor Air Flow Rate {m3/s}
    autosize,                !- Minimum Outdoor Air Flow Rate {m3/s}
    ,                        !- Minimum Outdoor Air Schedule Name
    NoEconomizer,            !- Economizer Type
    ,                        !- Economizer Upper Temperature Limit {C}
    ,                        !- Economizer Lower Temperature Limit {C}
    ,                        !- Economizer Upper Enthalpy Limit {J/kg}
    ,                        !- Economizer Maximum Limit Dewpoint Temperature {C}
    ,                        !- Supply Plenum Name
    ,                        !- Return Plenum Name
    StayOff,                 !- Night Cycle Control
    ,                        !- Night Cycle Control Zone Name
    None,                    !- Heat Recovery Type
    0.7,                     !- Sensible Heat Recovery Effectiveness
    0.65,                    !- Latent Heat Recovery Effectiveness
    Plate,                   !- Heat Recovery Heat Exchanger Type
    None,                    !- Heat Recovery Frost Control Type
    None,                    !- Dehumidification Control Type
    ,                        !- Dehumidification Control Zone Name
    60,                      !- Dehumidification Relative Humidity Setpoint {percent}
    ,                        !- Dehumidification Relative Humidity Setpoint Schedule Name
    None,                    !- Humidifier Type
    ,                        !- Humidifier Availability Schedule Name
    0.000001,                !- Humidifier Rated Capacity {m3/s}
    autosize,                !- Humidifier Rated Electric Power {W}
    ,                        !- Humidifier Control Zone Name
    30,                      !- Humidifier Relative Humidity Setpoint {percent}
    ,                        !- Humidifier Relative Humidity Setpoint Schedule Name
    No,                      !- Return Fan
    0.7,                     !- Return Fan Total Efficiency
    300,                     !- Return Fan Delta Pressure {Pa}
    0.9,                     !- Return Fan Motor Efficiency
    1;                       !- Return Fan Motor in Air Stream Fraction


!-   ===========  ALL OBJECTS IN CLASS: HVACTEMPLATE:SYSTEM:DUALDUCT ===========

HVACTemplate:System:DualDuct,
    ,                        !- Name
    ,                        !- System Availability Schedule Name
    SingleFanConstantVolume, !- System Configuration Type
    autosize,                !- Main Supply Fan Maximum Flow Rate {m3/s}
    0.2,                     !- Main Supply Fan Minimum Flow Fraction
    0.7,                     !- Main Supply Fan Total Efficiency
    1000,                    !- Main Supply Fan Delta Pressure {Pa}
    0.9,                     !- Main Supply Fan Motor Efficiency
    1,                       !- Main Supply Fan Motor in Air Stream Fraction
    InletVaneDampers,        !- Main Supply Fan Part-Load Power Coefficients
    autosize,                !- Cold Duct Supply Fan Maximum Flow Rate {m3/s}
    0.2,                     !- Cold Duct Supply Fan Minimum Flow Fraction
    0.7,                     !- Cold Duct Supply Fan Total Efficiency
    1000,                    !- Cold Duct Supply Fan Delta Pressure {Pa}
    0.9,                     !- Cold Duct Supply Fan Motor Efficiency
    1,                       !- Cold Duct Supply Fan Motor in Air Stream Fraction
    InletVaneDampers,        !- Cold Duct Supply Fan Part-Load Power Coefficients
    DrawThrough,             !- Cold Duct Supply Fan Placement
    autosize,                !- Hot Duct Supply Fan Maximum Flow Rate {m3/s}
    0.2,                     !- Hot Duct Supply Fan Minimum Flow Fraction
    0.7,                     !- Hot Duct Supply Fan Total Efficiency
    1000,                    !- Hot Duct Supply Fan Delta Pressure {Pa}
    0.9,                     !- Hot Duct Supply Fan Motor Efficiency
    1,                       !- Hot Duct Supply Fan Motor in Air Stream Fraction
    InletVaneDampers,        !- Hot Duct Supply Fan Part-Load Power Coefficients
    DrawThrough,             !- Hot Duct Supply Fan Placement
    ChilledWater,            !- Cooling Coil Type
    ,                        !- Cooling Coil Availability Schedule Name
    FixedSetpoint,           !- Cooling Coil Setpoint Control Type
    12.8,                    !- Cooling Coil Design Setpoint Temperature {C}
    ,                        !- Cooling Coil Setpoint Schedule Name
    15.6,                    !- Cooling Coil Setpoint at Outdoor Dry-Bulb Low {C}
    15.6,                    !- Cooling Coil Reset Outdoor Dry-Bulb Low {C}
    12.8,                    !- Cooling Coil Setpoint at Outdoor Dry-Bulb High {C}
    23.3,                    !- Cooling Coil Reset Outdoor Dry-Bulb High {C}
    HotWater,                !- Heating Coil Type
    ,                        !- Heating Coil Availability Schedule Name
    FixedSetpoint,           !- Heating Coil Setpoint Control Type
    50,                      !- Heating Coil Design Setpoint {C}
    ,                        !- Heating Coil Setpoint Schedule Name
    50,                      !- Heating Coil Setpoint at Outdoor Dry-Bulb Low {C}
    7.8,                     !- Heating Coil Reset Outdoor Dry-Bulb Low {C}
    20,                      !- Heating Coil Setpoint at Outdoor Dry-Bulb High {C}
    12.2,                    !- Heating Coil Reset Outdoor Dry-Bulb High {C}
    autosize,                !- Heating Coil Capacity {W}
    0.8,                     !- Gas Heating Coil Efficiency
    ,                        !- Gas Heating Coil Parasitic Electric Load {W}
    None,                    !- Preheat Coil Type
    ,                        !- Preheat Coil Availability Schedule Name
    7.2,                     !- Preheat Coil Design Setpoint {C}
    ,                        !- Preheat Coil Setpoint Schedule Name
    0.8,                     !- Gas Preheat Coil Efficiency
    ,                        !- Gas Preheat Coil Parasitic Electric Load {W}
    autosize,                !- Maximum Outdoor Air Flow Rate {m3/s}
    autosize,                !- Minimum Outdoor Air Flow Rate {m3/s}
    ProportionalMinimum,     !- Minimum Outdoor Air Control Type
    ,                        !- Minimum Outdoor Air Schedule Name
    NoEconomizer,            !- Economizer Type
    NoLockout,               !- Economizer Lockout
    ,                        !- Economizer Upper Temperature Limit {C}
    ,                        !- Economizer Lower Temperature Limit {C}
    ,                        !- Economizer Upper Enthalpy Limit {J/kg}
    ,                        !- Economizer Maximum Limit Dewpoint Temperature {C}
    ,                        !- Cold Supply Plenum Name
    ,                        !- Hot Supply Plenum Name
    ,                        !- Return Plenum Name
    StayOff,                 !- Night Cycle Control
    ,                        !- Night Cycle Control Zone Name
    None,                    !- Heat Recovery Type
    0.7,                     !- Sensible Heat Recovery Effectiveness
    0.65,                    !- Latent Heat Recovery Effectiveness
    Plate,                   !- Heat Recovery Heat Exchanger Type
    None,                    !- Heat Recovery Frost Control Type
    None,                    !- Dehumidification Control Type
    ,                        !- Dehumidification Control Zone Name
    60,                      !- Dehumidification Relative Humidity Setpoint {percent}
    ,                        !- Dehumidification Relative Humidity Setpoint Schedule Name
    None,                    !- Humidifier Type
    ,                        !- Humidifier Availability Schedule Name
    0.000001,                !- Humidifier Rated Capacity {m3/s}
    autosize,                !- Humidifier Rated Electric Power {W}
    ,                        !- Humidifier Control Zone Name
    30,                      !- Humidifier Relative Humidity Setpoint {percent}
    ,                        !- Humidifier Relative Humidity Setpoint Schedule Name
    NonCoincident,           !- Sizing Option
    No,                      !- Return Fan
    0.7,                     !- Return Fan Total Efficiency
    500,                     !- Return Fan Delta Pressure {Pa}
    0.9,                     !- Return Fan Motor Efficiency
    1,                       !- Return Fan Motor in Air Stream Fraction
    InletVaneDampers;        !- Return Fan Part-Load Power Coefficients


!-   ===========  ALL OBJECTS IN CLASS: HVACTEMPLATE:SYSTEM:DEDICATEDOUTDOORAIR ===========

HVACTemplate:System:DedicatedOutdoorAir,
    ,                        !- Name
    ,                        !- System Availability Schedule Name
    DirectIntoZone,          !- Air Outlet Type
    autosize,                !- Supply Fan Flow Rate {m3/s}
    0.7,                     !- Supply Fan Total Efficiency
    1000,                    !- Supply Fan Delta Pressure {Pa}
    0.9,                     !- Supply Fan Motor Efficiency
    1,                       !- Supply Fan Motor in Air Stream Fraction
    DrawThrough,             !- Supply Fan Placement
    ChilledWater,            !- Cooling Coil Type
    ,                        !- Cooling Coil Availability Schedule Name
    FixedSetpoint,           !- Cooling Coil Setpoint Control Type
    12.8,                    !- Cooling Coil Design Setpoint {C}
    ,                        !- Cooling Coil Setpoint Schedule Name
    15.6,                    !- Cooling Coil Setpoint at Outdoor Dry-Bulb Low {C}
    15.6,                    !- Cooling Coil Reset Outdoor Dry-Bulb Low {C}
    12.8,                    !- Cooling Coil Setpoint at Outdoor Dry-Bulb High {C}
    23.3,                    !- Cooling Coil Reset Outdoor Dry-Bulb High {C}
    autosize,                !- DX Cooling Coil Gross Rated Total Capacity {W}
    autosize,                !- DX Cooling Coil Gross Rated Sensible Heat Ratio
    3,                       !- DX Cooling Coil Gross Rated COP {W/W}
    HotWater,                !- Heating Coil Type
    ,                        !- Heating Coil Availability Schedule Name
    FixedSetpoint,           !- Heating Coil Setpoint Control Type
    12.2,                    !- Heating Coil Design Setpoint {C}
    ,                        !- Heating Coil Setpoint Schedule Name
    15,                      !- Heating Coil Setpoint at Outdoor Dry-Bulb Low {C}
    7.8,                     !- Heating Coil Reset Outdoor Dry-Bulb Low {C}
    12.2,                    !- Heating Coil Setpoint at Outdoor Dry-Bulb High {C}
    12.2,                    !- Heating Coil Reset Outdoor Dry-Bulb High {C}
    0.8,                     !- Gas Heating Coil Efficiency
    ,                        !- Gas Heating Coil Parasitic Electric Load {W}
    None,                    !- Heat Recovery Type
    0.7,                     !- Heat Recovery Sensible Effectiveness
    0.65,                    !- Heat Recovery Latent Effectiveness
    Plate,                   !- Heat Recovery Heat Exchanger Type
    None,                    !- Heat Recovery Frost Control Type
    None,                    !- Dehumidification Control Type
    0.00924,                 !- Dehumidification Setpoint {kgWater/kgDryAir}
    None,                    !- Humidifier Type
    ,                        !- Humidifier Availability Schedule Name
    0.000001,                !- Humidifier Rated Capacity {m3/s}
    autosize,                !- Humidifier Rated Electric Power {W}
    0.003,                   !- Humidifier Constant Setpoint {kgWater/kgDryAir}
    ,                        !- Dehumidification Setpoint Schedule Name
    ;                        !- Humidifier Setpoint Schedule Name


!-   ===========  ALL OBJECTS IN CLASS: HVACTEMPLATE:PLANT:CHILLEDWATERLOOP ===========

HVACTemplate:Plant:ChilledWaterLoop,
    ,                        !- Name
    ,                        !- Pump Schedule Name
    Intermittent,            !- Pump Control Type
    Default,                 !- Chiller Plant Operation Scheme Type
    ,                        !- Chiller Plant Equipment Operation Schemes Name
    ,                        !- Chilled Water Setpoint Schedule Name
    7.22,                    !- Chilled Water Design Setpoint {C}
    ConstantPrimaryNoSecondary,  !- Chilled Water Pump Configuration
    179352,                  !- Primary Chilled Water Pump Rated Head {Pa}
    179352,                  !- Secondary Chilled Water Pump Rated Head {Pa}
    Default,                 !- Condenser Plant Operation Scheme Type
    ,                        !- Condenser Equipment Operation Schemes Name
    ,                        !- Condenser Water Temperature Control Type
    ,                        !- Condenser Water Setpoint Schedule Name
    29.4,                    !- Condenser Water Design Setpoint {C}
    179352,                  !- Condenser Water Pump Rated Head {Pa}
    None,                    !- Chilled Water Setpoint Reset Type
    12.2,                    !- Chilled Water Setpoint at Outdoor Dry-Bulb Low {C}
    15.6,                    !- Chilled Water Reset Outdoor Dry-Bulb Low {C}
    6.7,                     !- Chilled Water Setpoint at Outdoor Dry-Bulb High {C}
    26.7,                    !- Chilled Water Reset Outdoor Dry-Bulb High {C}
    SinglePump,              !- Chilled Water Primary Pump Type
    SinglePump,              !- Chilled Water Secondary Pump Type
    SinglePump,              !- Condenser Water Pump Type
    Yes,                     !- Chilled Water Supply Side Bypass Pipe
    Yes,                     !- Chilled Water Demand Side Bypass Pipe
    Yes,                     !- Condenser Water Supply Side Bypass Pipe
    Yes,                     !- Condenser Water Demand Side Bypass Pipe
    Water,                   !- Fluid Type
    6.67,                    !- Loop Design Delta Temperature {deltaC}
    ,                        !- Minimum Outdoor Dry Bulb Temperature {C}
    SequentialLoad,          !- Chilled Water Load Distribution Scheme
    SequentialLoad;          !- Condenser Water Load Distribution Scheme


!-   ===========  ALL OBJECTS IN CLASS: HVACTEMPLATE:PLANT:CHILLER ===========

HVACTemplate:Plant:Chiller,
    ,                        !- Name
    ,                        !- Chiller Type
    autosize,                !- Capacity {W}
    ,                        !- Nominal COP {W/W}
    WaterCooled,             !- Condenser Type
    ,                        !- Priority
    1,                       !- Sizing Factor
    ,                        !- Minimum Part Load Ratio
    1,                       !- Maximum Part Load Ratio
    1,                       !- Optimum Part Load Ratio
    0.25,                    !- Minimum Unloading Ratio
    5;                       !- Leaving Chilled Water Lower Temperature Limit {C}


!-   ===========  ALL OBJECTS IN CLASS: HVACTEMPLATE:PLANT:CHILLER:OBJECTREFERENCE ===========

HVACTemplate:Plant:Chiller:ObjectReference,
    ,                        !- Name
    Chiller:Electric:EIR,    !- Chiller Object Type
    ,                        !- Chiller Name
    ;                        !- Priority


!-   ===========  ALL OBJECTS IN CLASS: HVACTEMPLATE:PLANT:TOWER ===========

HVACTemplate:Plant:Tower,
    ,                        !- Name
    ,                        !- Tower Type
    autosize,                !- High Speed Nominal Capacity {W}
    autosize,                !- High Speed Fan Power {W}
    autosize,                !- Low Speed Nominal Capacity {W}
    autosize,                !- Low Speed Fan Power {W}
    autosize,                !- Free Convection Capacity {W}
    ,                        !- Priority
    1;                       !- Sizing Factor


!-   ===========  ALL OBJECTS IN CLASS: HVACTEMPLATE:PLANT:TOWER:OBJECTREFERENCE ===========

HVACTemplate:Plant:Tower:ObjectReference,
    ,                        !- Name
    CoolingTower:SingleSpeed,!- Cooling Tower Object Type
    ,                        !- Cooling Tower Name
    ;                        !- Priority


!-   ===========  ALL OBJECTS IN CLASS: HVACTEMPLATE:PLANT:HOTWATERLOOP ===========

HVACTemplate:Plant:HotWaterLoop,
    ,                        !- Name
    ,                        !- Pump Schedule Name
    Intermittent,            !- Pump Control Type
    Default,                 !- Hot Water Plant Operation Scheme Type
    ,                        !- Hot Water Plant Equipment Operation Schemes Name
    ,                        !- Hot Water Setpoint Schedule Name
    82,                      !- Hot Water Design Setpoint {C}
    ConstantFlow,            !- Hot Water Pump Configuration
    179352,                  !- Hot Water Pump Rated Head {Pa}
    None,                    !- Hot Water Setpoint Reset Type
    82.2,                    !- Hot Water Setpoint at Outdoor Dry-Bulb Low {C}
    -6.7,                    !- Hot Water Reset Outdoor Dry-Bulb Low {C}
    65.6,                    !- Hot Water Setpoint at Outdoor Dry-Bulb High {C}
    10,                      !- Hot Water Reset Outdoor Dry-Bulb High {C}
    SinglePump,              !- Hot Water Pump Type
    Yes,                     !- Supply Side Bypass Pipe
    Yes,                     !- Demand Side Bypass Pipe
    Water,                   !- Fluid Type
    11,                      !- Loop Design Delta Temperature {deltaC}
    ,                        !- Maximum Outdoor Dry Bulb Temperature {C}
    SequentialLoad;          !- Load Distribution Scheme


!-   ===========  ALL OBJECTS IN CLASS: HVACTEMPLATE:PLANT:BOILER ===========

HVACTemplate:Plant:Boiler,
    ,                        !- Name
    ,                        !- Boiler Type
    autosize,                !- Capacity {W}
    0.8,                     !- Efficiency
    ,                        !- Fuel Type
    ,                        !- Priority
    1,                       !- Sizing Factor
    ,                        !- Minimum Part Load Ratio
    1.1,                     !- Maximum Part Load Ratio
    1,                       !- Optimum Part Load Ratio
    100;                     !- Water Outlet Upper Temperature Limit {C}


!-   ===========  ALL OBJECTS IN CLASS: HVACTEMPLATE:PLANT:BOILER:OBJECTREFERENCE ===========

HVACTemplate:Plant:Boiler:ObjectReference,
    ,                        !- Name
    Boiler:HotWater,         !- Boiler Object Type
    ,                        !- Boiler Name
    ;                        !- Priority


!-   ===========  ALL OBJECTS IN CLASS: HVACTEMPLATE:PLANT:MIXEDWATERLOOP ===========

HVACTemplate:Plant:MixedWaterLoop,
    ,                        !- Name
    ,                        !- Pump Schedule Name
    Intermittent,            !- Pump Control Type
    Default,                 !- Operation Scheme Type
    ,                        !- Equipment Operation Schemes Name
    ,                        !- High Temperature Setpoint Schedule Name
    33,                      !- High Temperature Design Setpoint {C}
    ,                        !- Low Temperature Setpoint Schedule Name
    20,                      !- Low Temperature Design Setpoint {C}
    ConstantFlow,            !- Water Pump Configuration
    179352,                  !- Water Pump Rated Head {Pa}
    SinglePump,              !- Water Pump Type
    Yes,                     !- Supply Side Bypass Pipe
    Yes,                     !- Demand Side Bypass Pipe
    Water,                   !- Fluid Type
    5.6,                     !- Loop Design Delta Temperature {deltaC}
    SequentialLoad;          !- Load Distribution Scheme


!-   ===========  ALL OBJECTS IN CLASS: DESIGNSPECIFICATION:OUTDOORAIR ===========

DesignSpecification:OutdoorAir,
    ,                        !- Name
    Flow/Person,             !- Outdoor Air Method
    0.00944;                 !- Outdoor Air Flow per Person {m3/s-person}


!-   ===========  ALL OBJECTS IN CLASS: DESIGNSPECIFICATION:OUTDOORAIR:SPACELIST ===========

DesignSpecification:OutdoorAir:SpaceList,
    ,                        !- Name
    ,                        !- Space 1 Name
    ;                        !- Space 1 Design Specification Outdoor Air Object Name


!-   ===========  ALL OBJECTS IN CLASS: DESIGNSPECIFICATION:ZONEAIRDISTRIBUTION ===========

DesignSpecification:ZoneAirDistribution,
    ,                        !- Name
    1,                       !- Zone Air Distribution Effectiveness in Cooling Mode {dimensionless}
    1;                       !- Zone Air Distribution Effectiveness in Heating Mode {dimensionless}


!-   ===========  ALL OBJECTS IN CLASS: SIZING:PARAMETERS ===========

Sizing:Parameters,
    1,                       !- Heating Sizing Factor
    1;                       !- Cooling Sizing Factor


!-   ===========  ALL OBJECTS IN CLASS: SIZING:ZONE ===========

Sizing:Zone,
    ,                        !- Zone or ZoneList Name
    SupplyAirTemperature,    !- Zone Cooling Design Supply Air Temperature Input Method
    ,                        !- Zone Cooling Design Supply Air Temperature {C}
    ,                        !- Zone Cooling Design Supply Air Temperature Difference {deltaC}
    SupplyAirTemperature,    !- Zone Heating Design Supply Air Temperature Input Method
    ,                        !- Zone Heating Design Supply Air Temperature {C}
    ,                        !- Zone Heating Design Supply Air Temperature Difference {deltaC}
    ,                        !- Zone Cooling Design Supply Air Humidity Ratio {kgWater/kgDryAir}
    ,                        !- Zone Heating Design Supply Air Humidity Ratio {kgWater/kgDryAir}
    ,                        !- Design Specification Outdoor Air Object Name
    ,                        !- Zone Heating Sizing Factor
    ,                        !- Zone Cooling Sizing Factor
    DesignDay,               !- Cooling Design Air Flow Method
    ,                        !- Cooling Design Air Flow Rate {m3/s}
    0.000762,                !- Cooling Minimum Air Flow per Zone Floor Area {m3/s-m2}
    ,                        !- Cooling Minimum Air Flow {m3/s}
    0.2,                     !- Cooling Minimum Air Flow Fraction
    DesignDay,               !- Heating Design Air Flow Method
    ,                        !- Heating Design Air Flow Rate {m3/s}
    0.002032,                !- Heating Maximum Air Flow per Zone Floor Area {m3/s-m2}
    0.1415762,               !- Heating Maximum Air Flow {m3/s}
    0.3,                     !- Heating Maximum Air Flow Fraction
    ,                        !- Design Specification Zone Air Distribution Object Name
    No,                      !- Account for Dedicated Outdoor Air System
    NeutralSupplyAir,        !- Dedicated Outdoor Air System Control Strategy
    autosize,                !- Dedicated Outdoor Air Low Setpoint Temperature for Design {C}
    autosize;                !- Dedicated Outdoor Air High Setpoint Temperature for Design {C}


!-   ===========  ALL OBJECTS IN CLASS: DESIGNSPECIFICATION:ZONEHVAC:SIZING ===========

DesignSpecification:ZoneHVAC:Sizing,
    ,                        !- Name
    SupplyAirFlowRate,       !- Cooling Supply Air Flow Rate Method
    ,                        !- Cooling Supply Air Flow Rate {m3/s}
    ,                        !- Cooling Supply Air Flow Rate Per Floor Area {m3/s-m2}
    ,                        !- Cooling Fraction of Autosized Cooling Supply Air Flow Rate
    ,                        !- Cooling Supply Air Flow Rate Per Unit Cooling Capacity {m3/s-W}
    SupplyAirFlowRate,       !- No Load Supply Air Flow Rate Method
    ,                        !- No Load Supply Air Flow Rate {m3/s}
    ,                        !- No Load Supply Air Flow Rate Per Floor Area {m3/s-m2}
    ,                        !- No Load Fraction of Cooling Supply Air Flow Rate
    ,                        !- No Load Fraction of Heating Supply Air Flow Rate
    SupplyAirFlowRate,       !- Heating Supply Air Flow Rate Method
    ,                        !- Heating Supply Air Flow Rate {m3/s}
    ,                        !- Heating Supply Air Flow Rate Per Floor Area {m3/s-m2}
    ,                        !- Heating Fraction of Heating Supply Air Flow Rate
    ,                        !- Heating Supply Air Flow Rate Per Unit Heating Capacity {m3/s-W}
    None,                    !- Cooling Design Capacity Method
    ,                        !- Cooling Design Capacity {W}
    ,                        !- Cooling Design Capacity Per Floor Area {W/m2}
    ,                        !- Fraction of Autosized Cooling Design Capacity
    None;                    !- Heating Design Capacity Method


!-   ===========  ALL OBJECTS IN CLASS: DESIGNSPECIFICATION:AIRTERMINAL:SIZING ===========

DesignSpecification:AirTerminal:Sizing,
    ,                        !- Name
    1,                       !- Fraction of Design Cooling Load {dimensionless}
    1,                       !- Cooling Design Supply Air Temperature Difference Ratio {dimensionless}
    1,                       !- Fraction of Design Heating Load {dimensionless}
    1,                       !- Heating Design Supply Air Temperature Difference Ratio {dimensionless}
    1;                       !- Fraction of Minimum Outdoor Air Flow {dimensionless}


!-   ===========  ALL OBJECTS IN CLASS: SIZING:SYSTEM ===========

Sizing:System,
    ,                        !- AirLoop Name
    Sensible,                !- Type of Load to Size On
    autosize,                !- Design Outdoor Air Flow Rate {m3/s}
    autosize,                !- Central Heating Maximum System Air Flow Ratio
    ,                        !- Preheat Design Temperature {C}
    ,                        !- Preheat Design Humidity Ratio {kgWater/kgDryAir}
    ,                        !- Precool Design Temperature {C}
    ,                        !- Precool Design Humidity Ratio {kgWater/kgDryAir}
    ,                        !- Central Cooling Design Supply Air Temperature {C}
    ,                        !- Central Heating Design Supply Air Temperature {C}
    NonCoincident,           !- Type of Zone Sum to Use
    No,                      !- 100% Outdoor Air in Cooling
    No,                      !- 100% Outdoor Air in Heating
    0.008,                   !- Central Cooling Design Supply Air Humidity Ratio {kgWater/kgDryAir}
    0.008,                   !- Central Heating Design Supply Air Humidity Ratio {kgWater/kgDryAir}
    DesignDay,               !- Cooling Supply Air Flow Rate Method
    ,                        !- Cooling Supply Air Flow Rate {m3/s}
    ,                        !- Cooling Supply Air Flow Rate Per Floor Area {m3/s-m2}
    ,                        !- Cooling Fraction of Autosized Cooling Supply Air Flow Rate
    ,                        !- Cooling Supply Air Flow Rate Per Unit Cooling Capacity {m3/s-W}
    DesignDay,               !- Heating Supply Air Flow Rate Method
    ,                        !- Heating Supply Air Flow Rate {m3/s}
    ,                        !- Heating Supply Air Flow Rate Per Floor Area {m3/s-m2}
    ,                        !- Heating Fraction of Autosized Heating Supply Air Flow Rate
    ,                        !- Heating Fraction of Autosized Cooling Supply Air Flow Rate
    ,                        !- Heating Supply Air Flow Rate Per Unit Heating Capacity {m3/s-W}
    ZoneSum,                 !- System Outdoor Air Method
    1,                       !- Zone Maximum Outdoor Air Fraction {dimensionless}
    CoolingDesignCapacity,   !- Cooling Design Capacity Method
    autosize,                !- Cooling Design Capacity {W}
    ,                        !- Cooling Design Capacity Per Floor Area {W/m2}
    ,                        !- Fraction of Autosized Cooling Design Capacity
    HeatingDesignCapacity,   !- Heating Design Capacity Method
    autosize,                !- Heating Design Capacity {W}
    ,                        !- Heating Design Capacity Per Floor Area {W/m2}
    ,                        !- Fraction of Autosized Heating Design Capacity
    OnOff,                   !- Central Cooling Capacity Control Method
    autosize;                !- Occupant Diversity


!-   ===========  ALL OBJECTS IN CLASS: SIZING:PLANT ===========

Sizing:Plant,
    ,                        !- Plant or Condenser Loop Name
    ,                        !- Loop Type
    ,                        !- Design Loop Exit Temperature {C}
    ,                        !- Loop Design Temperature Difference {deltaC}
    NonCoincident,           !- Sizing Option
    1;                       !- Zone Timesteps in Averaging Window


!-   ===========  ALL OBJECTS IN CLASS: OUTPUTCONTROL:SIZING:STYLE ===========

OutputControl:Sizing:Style,
    ;                        !- Column Separator


!-   ===========  ALL OBJECTS IN CLASS: ZONECONTROL:HUMIDISTAT ===========

ZoneControl:Humidistat,
    ,                        !- Name
    ,                        !- Zone Name
    ;                        !- Humidifying Relative Humidity Setpoint Schedule Name


!-   ===========  ALL OBJECTS IN CLASS: ZONECONTROL:THERMOSTAT ===========

ZoneControl:Thermostat,
    ;                        !- Name


!-   ===========  ALL OBJECTS IN CLASS: ZONECONTROL:THERMOSTAT:OPERATIVETEMPERATURE ===========

ZoneControl:Thermostat:OperativeTemperature,
    ,                        !- Thermostat Name
    ,                        !- Radiative Fraction Input Mode
    ,                        !- Fixed Radiative Fraction
    ,                        !- Radiative Fraction Schedule Name
    None;                    !- Adaptive Comfort Model Type


!-   ===========  ALL OBJECTS IN CLASS: ZONECONTROL:THERMOSTAT:THERMALCOMFORT ===========

ZoneControl:Thermostat:ThermalComfort,
    ,                        !- Name
    ,                        !- Zone or ZoneList Name
    PeopleAverage,           !- Averaging Method
    ,                        !- Specific People Name
    ,                        !- Minimum Dry-Bulb Temperature Setpoint {C}
    50,                      !- Maximum Dry-Bulb Temperature Setpoint {C}
    ,                        !- Thermal Comfort Control Type Schedule Name
    ,                        !- Thermal Comfort Control 1 Object Type
    ;                        !- Thermal Comfort Control 1 Name


!-   ===========  ALL OBJECTS IN CLASS: ZONECONTROL:THERMOSTAT:TEMPERATUREANDHUMIDITY ===========

ZoneControl:Thermostat:TemperatureAndHumidity,
    ,                        !- Thermostat Name
    ,                        !- Dehumidifying Relative Humidity Setpoint Schedule Name
    Overcool,                !- Dehumidification Control Type
    Constant,                !- Overcool Range Input Method
    1.7,                     !- Overcool Constant Range {deltaC}
    ,                        !- Overcool Range Schedule Name
    3.6;                     !- Overcool Control Ratio {percent/K}


!-   ===========  ALL OBJECTS IN CLASS: THERMOSTATSETPOINT:SINGLEHEATING ===========

ThermostatSetpoint:SingleHeating,
    ;                        !- Name


!-   ===========  ALL OBJECTS IN CLASS: THERMOSTATSETPOINT:SINGLECOOLING ===========

ThermostatSetpoint:SingleCooling,
    ;                        !- Name


!-   ===========  ALL OBJECTS IN CLASS: THERMOSTATSETPOINT:SINGLEHEATINGORCOOLING ===========

ThermostatSetpoint:SingleHeatingOrCooling,
    ;                        !- Name


!-   ===========  ALL OBJECTS IN CLASS: THERMOSTATSETPOINT:DUALSETPOINT ===========

ThermostatSetpoint:DualSetpoint,
    ;                        !- Name


!-   ===========  ALL OBJECTS IN CLASS: THERMOSTATSETPOINT:THERMALCOMFORT:FANGER:SINGLEHEATING ===========

ThermostatSetpoint:ThermalComfort:Fanger:SingleHeating,
    ,                        !- Name
    ;                        !- Fanger Thermal Comfort Schedule Name


!-   ===========  ALL OBJECTS IN CLASS: THERMOSTATSETPOINT:THERMALCOMFORT:FANGER:SINGLECOOLING ===========

ThermostatSetpoint:ThermalComfort:Fanger:SingleCooling,
    ,                        !- Name
    ;                        !- Fanger Thermal Comfort Schedule Name


!-   ===========  ALL OBJECTS IN CLASS: THERMOSTATSETPOINT:THERMALCOMFORT:FANGER:SINGLEHEATINGORCOOLING ===========

ThermostatSetpoint:ThermalComfort:Fanger:SingleHeatingOrCooling,
    ,                        !- Name
    ;                        !- Fanger Thermal Comfort Schedule Name


!-   ===========  ALL OBJECTS IN CLASS: THERMOSTATSETPOINT:THERMALCOMFORT:FANGER:DUALSETPOINT ===========

ThermostatSetpoint:ThermalComfort:Fanger:DualSetpoint,
    ,                        !- Name
    ,                        !- Fanger Thermal Comfort Heating Schedule Name
    ;                        !- Fanger Thermal Comfort Cooling Schedule Name


!-   ===========  ALL OBJECTS IN CLASS: ZONECONTROL:THERMOSTAT:STAGEDDUALSETPOINT ===========

ZoneControl:Thermostat:StagedDualSetpoint,
    ,                        !- Name
    ,                        !- Zone or ZoneList Name
    ,                        !- Number of Heating Stages
    ,                        !- Heating Temperature Setpoint Schedule Name
    1.1,                     !- Heating Throttling Temperature Range {deltaC}
    ,                        !- Stage 1 Heating Temperature Offset {deltaC}
    ,                        !- Stage 2 Heating Temperature Offset {deltaC}
    ,                        !- Stage 3 Heating Temperature Offset {deltaC}
    ,                        !- Stage 4 Heating Temperature Offset {deltaC}
    ,                        !- Number of Cooling Stages
    ,                        !- Cooling Temperature Setpoint Base Schedule Name
    1.1;                     !- Cooling Throttling Temperature Range {deltaC}


!-   ===========  ALL OBJECTS IN CLASS: ZONECONTROL:CONTAMINANTCONTROLLER ===========

ZoneControl:ContaminantController,
    ,                        !- Name
    ,                        !- Zone Name
    ,                        !- Carbon Dioxide Control Availability Schedule Name
    ;                        !- Carbon Dioxide Setpoint Schedule Name


!-   ===========  ALL OBJECTS IN CLASS: ZONEHVAC:IDEALLOADSAIRSYSTEM ===========

ZoneHVAC:IdealLoadsAirSystem,
    ,                        !- Name
    ,                        !- Availability Schedule Name
    ,                        !- Zone Supply Air Node Name
    ,                        !- Zone Exhaust Air Node Name
    ,                        !- System Inlet Air Node Name
    50,                      !- Maximum Heating Supply Air Temperature {C}
    13,                      !- Minimum Cooling Supply Air Temperature {C}
    0.0156,                  !- Maximum Heating Supply Air Humidity Ratio {kgWater/kgDryAir}
    0.0077,                  !- Minimum Cooling Supply Air Humidity Ratio {kgWater/kgDryAir}
    NoLimit,                 !- Heating Limit
    ,                        !- Maximum Heating Air Flow Rate {m3/s}
    ,                        !- Maximum Sensible Heating Capacity {W}
    NoLimit,                 !- Cooling Limit
    ,                        !- Maximum Cooling Air Flow Rate {m3/s}
    ,                        !- Maximum Total Cooling Capacity {W}
    ,                        !- Heating Availability Schedule Name
    ,                        !- Cooling Availability Schedule Name
    ConstantSensibleHeatRatio,  !- Dehumidification Control Type
    0.7,                     !- Cooling Sensible Heat Ratio {dimensionless}
    None,                    !- Humidification Control Type
    ,                        !- Design Specification Outdoor Air Object Name
    ,                        !- Outdoor Air Inlet Node Name
    None,                    !- Demand Controlled Ventilation Type
    NoEconomizer,            !- Outdoor Air Economizer Type
    None,                    !- Heat Recovery Type
    0.7,                     !- Sensible Heat Recovery Effectiveness {dimensionless}
    0.65;                    !- Latent Heat Recovery Effectiveness {dimensionless}


!-   ===========  ALL OBJECTS IN CLASS: ZONEHVAC:FOURPIPEFANCOIL ===========

ZoneHVAC:FourPipeFanCoil,
    ,                        !- Name
    ,                        !- Availability Schedule Name
    ,                        !- Capacity Control Method
    ,                        !- Maximum Supply Air Flow Rate {m3/s}
    0.33,                    !- Low Speed Supply Air Flow Ratio
    0.66,                    !- Medium Speed Supply Air Flow Ratio
    ,                        !- Maximum Outdoor Air Flow Rate {m3/s}
    ,                        !- Outdoor Air Schedule Name
    ,                        !- Air Inlet Node Name
    ,                        !- Air Outlet Node Name
    ,                        !- Outdoor Air Mixer Object Type
    ,                        !- Outdoor Air Mixer Name
    ,                        !- Supply Air Fan Object Type
    ,                        !- Supply Air Fan Name
    ,                        !- Cooling Coil Object Type
    ,                        !- Cooling Coil Name
    ,                        !- Maximum Cold Water Flow Rate {m3/s}
    ,                        !- Minimum Cold Water Flow Rate {m3/s}
    0.001,                   !- Cooling Convergence Tolerance
    ,                        !- Heating Coil Object Type
    ,                        !- Heating Coil Name
    ,                        !- Maximum Hot Water Flow Rate {m3/s}
    ,                        !- Minimum Hot Water Flow Rate {m3/s}
    0.001,                   !- Heating Convergence Tolerance
    ,                        !- Availability Manager List Name
    ,                        !- Design Specification ZoneHVAC Sizing Object Name
    ,                        !- Supply Air Fan Operating Mode Schedule Name
    autosize,                !- Minimum Supply Air Temperature in Cooling Mode {C}
    autosize;                !- Maximum Supply Air Temperature in Heating Mode {C}


!-   ===========  ALL OBJECTS IN CLASS: ZONEHVAC:WINDOWAIRCONDITIONER ===========

ZoneHVAC:WindowAirConditioner,
    ,                        !- Name
    ,                        !- Availability Schedule Name
    ,                        !- Maximum Supply Air Flow Rate {m3/s}
    ,                        !- Maximum Outdoor Air Flow Rate {m3/s}
    ,                        !- Air Inlet Node Name
    ,                        !- Air Outlet Node Name
    ,                        !- Outdoor Air Mixer Object Type
    ,                        !- Outdoor Air Mixer Name
    ,                        !- Supply Air Fan Object Type
    ,                        !- Supply Air Fan Name
    ,                        !- Cooling Coil Object Type
    ,                        !- DX Cooling Coil Name
    ,                        !- Supply Air Fan Operating Mode Schedule Name
    ,                        !- Fan Placement
    0.001;                   !- Cooling Convergence Tolerance


!-   ===========  ALL OBJECTS IN CLASS: ZONEHVAC:PACKAGEDTERMINALAIRCONDITIONER ===========

ZoneHVAC:PackagedTerminalAirConditioner,
    ,                        !- Name
    ,                        !- Availability Schedule Name
    ,                        !- Air Inlet Node Name
    ,                        !- Air Outlet Node Name
    ,                        !- Outdoor Air Mixer Object Type
    ,                        !- Outdoor Air Mixer Name
    ,                        !- Cooling Supply Air Flow Rate {m3/s}
    ,                        !- Heating Supply Air Flow Rate {m3/s}
    ,                        !- No Load Supply Air Flow Rate {m3/s}
    ,                        !- Cooling Outdoor Air Flow Rate {m3/s}
    ,                        !- Heating Outdoor Air Flow Rate {m3/s}
    ,                        !- No Load Outdoor Air Flow Rate {m3/s}
    ,                        !- Supply Air Fan Object Type
    ,                        !- Supply Air Fan Name
    ,                        !- Heating Coil Object Type
    ,                        !- Heating Coil Name
    ,                        !- Cooling Coil Object Type
    ,                        !- Cooling Coil Name
    DrawThrough,             !- Fan Placement
    ,                        !- Supply Air Fan Operating Mode Schedule Name
    ,                        !- Availability Manager List Name
    ,                        !- Design Specification ZoneHVAC Sizing Object Name
    None,                    !- Capacity Control Method
    autosize,                !- Minimum Supply Air Temperature in Cooling Mode {C}
    autosize;                !- Maximum Supply Air Temperature in Heating Mode {C}


!-   ===========  ALL OBJECTS IN CLASS: ZONEHVAC:PACKAGEDTERMINALHEATPUMP ===========

ZoneHVAC:PackagedTerminalHeatPump,
    ,                        !- Name
    ,                        !- Availability Schedule Name
    ,                        !- Air Inlet Node Name
    ,                        !- Air Outlet Node Name
    ,                        !- Outdoor Air Mixer Object Type
    ,                        !- Outdoor Air Mixer Name
    ,                        !- Cooling Supply Air Flow Rate {m3/s}
    ,                        !- Heating Supply Air Flow Rate {m3/s}
    ,                        !- No Load Supply Air Flow Rate {m3/s}
    ,                        !- Cooling Outdoor Air Flow Rate {m3/s}
    ,                        !- Heating Outdoor Air Flow Rate {m3/s}
    ,                        !- No Load Outdoor Air Flow Rate {m3/s}
    ,                        !- Supply Air Fan Object Type
    ,                        !- Supply Air Fan Name
    ,                        !- Heating Coil Object Type
    ,                        !- Heating Coil Name
    0.001,                   !- Heating Convergence Tolerance {dimensionless}
    ,                        !- Cooling Coil Object Type
    ,                        !- Cooling Coil Name
    0.001,                   !- Cooling Convergence Tolerance {dimensionless}
    ,                        !- Supplemental Heating Coil Object Type
    ,                        !- Supplemental Heating Coil Name
    ,                        !- Maximum Supply Air Temperature from Supplemental Heater {C}
    21,                      !- Maximum Outdoor Dry-Bulb Temperature for Supplemental Heater Operation {C}
    DrawThrough,             !- Fan Placement
    ,                        !- Supply Air Fan Operating Mode Schedule Name
    ,                        !- Availability Manager List Name
    ,                        !- Design Specification ZoneHVAC Sizing Object Name
    None,                    !- Capacity Control Method
    autosize,                !- Minimum Supply Air Temperature in Cooling Mode {C}
    autosize;                !- Maximum Supply Air Temperature in Heating Mode {C}


!-   ===========  ALL OBJECTS IN CLASS: ZONEHVAC:WATERTOAIRHEATPUMP ===========

ZoneHVAC:WaterToAirHeatPump,
    ,                        !- Name
    ,                        !- Availability Schedule Name
    ,                        !- Air Inlet Node Name
    ,                        !- Air Outlet Node Name
    ,                        !- Outdoor Air Mixer Object Type
    ,                        !- Outdoor Air Mixer Name
    ,                        !- Cooling Supply Air Flow Rate {m3/s}
    ,                        !- Heating Supply Air Flow Rate {m3/s}
    ,                        !- No Load Supply Air Flow Rate {m3/s}
    ,                        !- Cooling Outdoor Air Flow Rate {m3/s}
    ,                        !- Heating Outdoor Air Flow Rate {m3/s}
    ,                        !- No Load Outdoor Air Flow Rate {m3/s}
    ,                        !- Supply Air Fan Object Type
    ,                        !- Supply Air Fan Name
    ,                        !- Heating Coil Object Type
    ,                        !- Heating Coil Name
    ,                        !- Cooling Coil Object Type
    ,                        !- Cooling Coil Name
    2.5,                     !- Maximum Cycling Rate {cycles/hr}
    60,                      !- Heat Pump Time Constant {s}
    0.01,                    !- Fraction of On-Cycle Power Use
    60,                      !- Heat Pump Fan Delay Time {s}
    ,                        !- Supplemental Heating Coil Object Type
    ,                        !- Supplemental Heating Coil Name
    autosize,                !- Maximum Supply Air Temperature from Supplemental Heater {C}
    21,                      !- Maximum Outdoor Dry-Bulb Temperature for Supplemental Heater Operation {C}
    ,                        !- Outdoor Dry-Bulb Temperature Sensor Node Name
    BlowThrough,             !- Fan Placement
    ,                        !- Supply Air Fan Operating Mode Schedule Name
    ,                        !- Availability Manager List Name
    Cycling;                 !- Heat Pump Coil Water Flow Mode


!-   ===========  ALL OBJECTS IN CLASS: ZONEHVAC:DEHUMIDIFIER:DX ===========

ZoneHVAC:Dehumidifier:DX,
    ,                        !- Name
    ,                        !- Availability Schedule Name
    ,                        !- Air Inlet Node Name
    ,                        !- Air Outlet Node Name
    ,                        !- Rated Water Removal {L/day}
    ,                        !- Rated Energy Factor {L/kWh}
    ,                        !- Rated Air Flow Rate {m3/s}
    ,                        !- Water Removal Curve Name
    ,                        !- Energy Factor Curve Name
    ,                        !- Part Load Fraction Correlation Curve Name
    10,                      !- Minimum Dry-Bulb Temperature for Dehumidifier Operation {C}
    35,                      !- Maximum Dry-Bulb Temperature for Dehumidifier Operation {C}
    ;                        !- Off-Cycle Parasitic Electric Load {W}


!-   ===========  ALL OBJECTS IN CLASS: ZONEHVAC:ENERGYRECOVERYVENTILATOR ===========

ZoneHVAC:EnergyRecoveryVentilator,
    ,                        !- Name
    ,                        !- Availability Schedule Name
    ,                        !- Heat Exchanger Name
    ,                        !- Supply Air Flow Rate {m3/s}
    ,                        !- Exhaust Air Flow Rate {m3/s}
    ,                        !- Supply Air Fan Name
    ;                        !- Exhaust Air Fan Name


!-   ===========  ALL OBJECTS IN CLASS: ZONEHVAC:ENERGYRECOVERYVENTILATOR:CONTROLLER ===========

ZoneHVAC:EnergyRecoveryVentilator:Controller,
    ,                        !- Name
    ,                        !- Temperature High Limit {C}
    ,                        !- Temperature Low Limit {C}
    ,                        !- Enthalpy High Limit {J/kg}
    ,                        !- Dewpoint Temperature Limit {C}
    ,                        !- Electronic Enthalpy Limit Curve Name
    NoExhaustAirTemperatureLimit,  !- Exhaust Air Temperature Limit
    NoExhaustAirEnthalpyLimit,  !- Exhaust Air Enthalpy Limit
    ,                        !- Time of Day Economizer Flow Control Schedule Name
    No,                      !- High Humidity Control Flag
    ,                        !- Humidistat Control Zone Name
    1,                       !- High Humidity Outdoor Air Flow Ratio
    Yes;                     !- Control High Indoor Humidity Based on Outdoor Humidity Ratio


!-   ===========  ALL OBJECTS IN CLASS: ZONEHVAC:UNITVENTILATOR ===========

ZoneHVAC:UnitVentilator,
    ,                        !- Name
    ,                        !- Availability Schedule Name
    ,                        !- Maximum Supply Air Flow Rate {m3/s}
    ,                        !- Outdoor Air Control Type
    ,                        !- Minimum Outdoor Air Flow Rate {m3/s}
    ,                        !- Minimum Outdoor Air Schedule Name
    ,                        !- Maximum Outdoor Air Flow Rate {m3/s}
    ,                        !- Maximum Outdoor Air Fraction or Temperature Schedule Name
    ,                        !- Air Inlet Node Name
    ,                        !- Air Outlet Node Name
    ,                        !- Outdoor Air Node Name
    ,                        !- Exhaust Air Node Name
    ,                        !- Mixed Air Node Name
    ,                        !- Supply Air Fan Object Type
    ,                        !- Supply Air Fan Name
    ,                        !- Coil Option
    ,                        !- Supply Air Fan Operating Mode Schedule Name
    ,                        !- Heating Coil Object Type
    ,                        !- Heating Coil Name
    0.001,                   !- Heating Convergence Tolerance
    ,                        !- Cooling Coil Object Type
    ,                        !- Cooling Coil Name
    0.001;                   !- Cooling Convergence Tolerance


!-   ===========  ALL OBJECTS IN CLASS: ZONEHVAC:UNITHEATER ===========

ZoneHVAC:UnitHeater,
    ,                        !- Name
    ,                        !- Availability Schedule Name
    ,                        !- Air Inlet Node Name
    ,                        !- Air Outlet Node Name
    ,                        !- Supply Air Fan Object Type
    ,                        !- Supply Air Fan Name
    ,                        !- Maximum Supply Air Flow Rate {m3/s}
    ,                        !- Heating Coil Object Type
    ,                        !- Heating Coil Name
    ,                        !- Supply Air Fan Operating Mode Schedule Name
    ,                        !- Supply Air Fan Operation During No Heating
    ,                        !- Maximum Hot Water or Steam Flow Rate {m3/s}
    ,                        !- Minimum Hot Water or Steam Flow Rate {m3/s}
    0.001;                   !- Heating Convergence Tolerance


!-   ===========  ALL OBJECTS IN CLASS: ZONEHVAC:EVAPORATIVECOOLERUNIT ===========

ZoneHVAC:EvaporativeCoolerUnit,
    ,                        !- Name
    ,                        !- Availability Schedule Name
    ,                        !- Availability Manager List Name
    ,                        !- Outdoor Air Inlet Node Name
    ,                        !- Cooler Outlet Node Name
    ,                        !- Zone Relief Air Node Name
    ,                        !- Supply Air Fan Object Type
    ,                        !- Supply Air Fan Name
    ,                        !- Design Supply Air Flow Rate {m3/s}
    ,                        !- Fan Placement
    ,                        !- Cooler Unit Control Method
    1,                       !- Throttling Range Temperature Difference {deltaC}
    100,                     !- Cooling Load Control Threshold Heat Transfer Rate {W}
    ,                        !- First Evaporative Cooler Object Type
    ;                        !- First Evaporative Cooler Object Name


!-   ===========  ALL OBJECTS IN CLASS: ZONEHVAC:HYBRIDUNITARYHVAC ===========

ZoneHVAC:HybridUnitaryHVAC,
    ,                        !- Name
    ,                        !- Availability Schedule Name
    ,                        !- Availability Manager List Name
    ,                        !- Minimum Supply Air Temperature Schedule Name
    ,                        !- Maximum Supply Air Temperature Schedule Name
    ,                        !- Minimum Supply Air Humidity Ratio Schedule Name
    ,                        !- Maximum Supply Air Humidity Ratio Schedule Name
    Automatic,               !- Method to Choose Controlled Inputs and Part Runtime Fraction
    ,                        !- Return Air Node Name
    ,                        !- Outdoor Air Node Name
    ,                        !- Supply Air Node Name
    ,                        !- Relief Node Name
    ,                        !- System Maximum Supply Air Flow Rate {m3/s}
    ,                        !- External Static Pressure at System Maximum Supply Air Flow Rate {Pa}
    No,                      !- Fan Heat Included in Lookup Tables
    SupplyAirStream,         !- Fan Heat Gain Location
    1,                       !- Fan Heat In Air Stream Fraction
    1,                       !- Scaling Factor
    10,                      !- Minimum Time Between Mode Change {minutes}
    Electricity,             !- First Fuel Type
    None,                    !- Second Fuel Type
    None,                    !- Third Fuel Type
    Electricity Use,         !- Objective Function to Minimize
    ,                        !- Design Specification Outdoor Air Object Name
    ,                        !- Mode 0 Name
    ,                        !- Mode 0 Supply Air Temperature Lookup Table Name
    ,                        !- Mode 0 Supply Air Humidity Ratio Lookup Table Name
    ,                        !- Mode 0 System Electric Power Lookup Table Name
    ,                        !- Mode 0 Supply Fan Electric Power Lookup Table Name
    ,                        !- Mode 0 External Static Pressure Lookup Table Name
    ,                        !- Mode 0 System Second Fuel Consumption Lookup Table Name
    ,                        !- Mode 0 System Third Fuel Consumption Lookup Table Name
    ,                        !- Mode 0 System Water Use Lookup Table Name
    ,                        !- Mode 0 Outdoor Air Fraction
    ,                        !- Mode 0 Supply Air Mass Flow Rate Ratio
    ,                        !- Mode 1 Name
    ,                        !- Mode 1 Supply Air Temperature Lookup Table Name
    ,                        !- Mode 1 Supply Air Humidity Ratio Lookup Table Name
    ,                        !- Mode 1 System Electric Power Lookup Table Name
    ,                        !- Mode 1 Supply Fan Electric Power Lookup Table Name
    ,                        !- Mode 1 External Static Pressure Lookup Table Name
    ,                        !- Mode 1 System Second Fuel Consumption Lookup Table Name
    ,                        !- Mode 1 System Third Fuel Consumption Lookup Table Name
    ,                        !- Mode 1 System Water Use Lookup Table Name
    ,                        !- Mode 1 Minimum Outdoor Air Temperature {C}
    ,                        !- Mode 1 Maximum Outdoor Air Temperature {C}
    ,                        !- Mode 1 Minimum Outdoor Air Humidity Ratio {kgWater/kgDryAir}
    0.1,                     !- Mode 1 Maximum Outdoor Air Humidity Ratio {kgWater/kgDryAir}
    ,                        !- Mode 1 Minimum Outdoor Air Relative Humidity {percent}
    100,                     !- Mode 1 Maximum Outdoor Air Relative Humidity {percent}
    ,                        !- Mode 1 Minimum Return Air Temperature {C}
    ,                        !- Mode 1 Maximum Return Air Temperature {C}
    ,                        !- Mode 1 Minimum Return Air Humidity Ratio {kgWater/kgDryAir}
    0.1,                     !- Mode 1 Maximum Return Air Humidity Ratio {kgWater/kgDryAir}
    ,                        !- Mode 1 Minimum Return Air Relative Humidity {percent}
    100,                     !- Mode 1 Maximum Return Air Relative Humidity {percent}
    0.1,                     !- Mode 1 Minimum Outdoor Air Fraction
    1,                       !- Mode 1 Maximum Outdoor Air Fraction
    0.1,                     !- Mode 1 Minimum Supply Air Mass Flow Rate Ratio
    1,                       !- Mode 1 Maximum Supply Air Mass Flow Rate Ratio
    ,                        !- Mode 2 Name
    ,                        !- Mode 2 Supply Air Temperature Lookup Table Name
    ,                        !- Mode 2 Supply Air Humidity Ratio Lookup Table Name
    ,                        !- Mode 2 System Electric Power Lookup Table Name
    ,                        !- Mode 2 Supply Fan Electric Power Lookup Table Name
    ,                        !- Mode 2 External Static Pressure Lookup Table Name
    ,                        !- Mode 2 System Second Fuel Consumption Lookup Table Name
    ,                        !- Mode 2 System Third Fuel Consumption Lookup Table Name
    ,                        !- Mode 2 System Water Use Lookup Table Name
    ,                        !- Mode 2 Minimum Outdoor Air Temperature {C}
    ,                        !- Mode 2 Maximum Outdoor Air Temperature {C}
    ,                        !- Mode 2 Minimum Outdoor Air Humidity Ratio {kgWater/kgDryAir}
    0.1,                     !- Mode 2 Maximum Outdoor Air Humidity Ratio {kgWater/kgDryAir}
    ,                        !- Mode 2 Minimum Outdoor Air Relative Humidity {percent}
    100,                     !- Mode 2 Maximum Outdoor Air Relative Humidity {percent}
    ,                        !- Mode 2 Minimum Return Air Temperature {C}
    ,                        !- Mode 2 Maximum Return Air Temperature {C}
    ,                        !- Mode 2 Minimum Return Air Humidity Ratio {kgWater/kgDryAir}
    0.1,                     !- Mode 2 Maximum Return Air Humidity Ratio {kgWater/kgDryAir}
    ,                        !- Mode 2 Minimum Return Air Relative Humidity {percent}
    100,                     !- Mode 2 Maximum Return Air Relative Humidity {percent}
    0.1,                     !- Mode 2 Minimum Outdoor Air Fraction
    1,                       !- Mode 2 Maximum Outdoor Air Fraction
    0.1,                     !- Mode 2 Minimum Supply Air Mass Flow Rate Ratio
    1,                       !- Mode 2 Maximum Supply Air Mass Flow Rate Ratio
    ,                        !- Mode 3 Name
    ,                        !- Mode 3 Supply Air Temperature Lookup Table Name
    ,                        !- Mode 3 Supply Air Humidity Ratio Lookup Table Name
    ,                        !- Mode 3 System Electric Power Lookup Table Name
    ,                        !- Mode 3 Supply Fan Electric Power Lookup Table Name
    ,                        !- Mode 3 External Static Pressure Lookup Table Name
    ,                        !- Mode 3 System Second Fuel Consumption Lookup Table Name
    ,                        !- Mode 3 System Third Fuel Consumption Lookup Table Name
    ,                        !- Mode 3 System Water Use Lookup Table Name
    ,                        !- Mode 3 Minimum Outdoor Air Temperature {C}
    ,                        !- Mode 3 Maximum Outdoor Air Temperature {C}
    ,                        !- Mode 3 Minimum Outdoor Air Humidity Ratio {kgWater/kgDryAir}
    0.1,                     !- Mode 3 Maximum Outdoor Air Humidity Ratio {kgWater/kgDryAir}
    ,                        !- Mode 3 Minimum Outdoor Air Relative Humidity {percent}
    100,                     !- Mode 3 Maximum Outdoor Air Relative Humidity {percent}
    ,                        !- Mode 3 Minimum Return Air Temperature {C}
    ,                        !- Mode 3 Maximum Return Air Temperature {C}
    ,                        !- Mode 3 Minimum Return Air Humidity Ratio {kgWater/kgDryAir}
    0.1,                     !- Mode 3 Maximum Return Air Humidity Ratio {kgWater/kgDryAir}
    ,                        !- Mode 3 Minimum Return Air Relative Humidity {percent}
    100,                     !- Mode 3 Maximum Return Air Relative Humidity {percent}
    0.1,                     !- Mode 3 Minimum Outdoor Air Fraction
    1,                       !- Mode 3 Maximum Outdoor Air Fraction
    0.1,                     !- Mode 3 Minimum Supply Air Mass Flow Rate Ratio
    1,                       !- Mode 3 Maximum Supply Air Mass Flow Rate Ratio
    ,                        !- Mode 4 Name
    ,                        !- Mode 4 Supply Air Temperature Lookup Table Name
    ,                        !- Mode 4 Supply Air Humidity Ratio Lookup Table Name
    ,                        !- Mode 4 System Electric Power Lookup Table Name
    ,                        !- Mode 4 Supply Fan Electric Power Lookup Table Name
    ,                        !- Mode 4 External Static Pressure Lookup Table Name
    ,                        !- Mode 4 System Second Fuel Consumption Lookup Table Name
    ,                        !- Mode 4 System Third Fuel Consumption Lookup Table Name
    ,                        !- Mode 4 System Water Use Lookup Table Name
    ,                        !- Mode 4 Minimum Outdoor Air Temperature {C}
    ,                        !- Mode 4 Maximum Outdoor Air Temperature {C}
    ,                        !- Mode 4 Minimum Outdoor Air Humidity Ratio {kgWater/kgDryAir}
    0.1,                     !- Mode 4 Maximum Outdoor Air Humidity Ratio {kgWater/kgDryAir}
    ,                        !- Mode 4 Minimum Outdoor Air Relative Humidity {percent}
    100,                     !- Mode 4 Maximum Outdoor Air Relative Humidity {percent}
    ,                        !- Mode 4 Minimum Return Air Temperature {C}
    ,                        !- Mode 4 Maximum Return Air Temperature {C}
    ,                        !- Mode 4 Minimum Return Air Humidity Ratio {kgWater/kgDryAir}
    0.1,                     !- Mode 4 Maximum Return Air Humidity Ratio {kgWater/kgDryAir}
    ,                        !- Mode 4 Minimum Return Air Relative Humidity {percent}
    100,                     !- Mode 4 Maximum Return Air Relative Humidity {percent}
    0.1,                     !- Mode 4 Minimum Outdoor Air Fraction
    1,                       !- Mode 4 Maximum Outdoor Air Fraction
    0.1,                     !- Mode 4 Minimum Supply Air Mass Flow Rate Ratio
    1,                       !- Mode 4 Maximum Supply Air Mass Flow Rate Ratio
    ,                        !- Mode 5 Name
    ,                        !- Mode 5 Supply Air Temperature Lookup Table Name
    ,                        !- Mode 5 Supply Air Humidity Ratio Lookup Table Name
    ,                        !- Mode 5 System Electric Power Lookup Table Name
    ,                        !- Mode 5 Supply Fan Electric Power Lookup Table Name
    ,                        !- Mode 5 External Static Pressure Lookup Table Name
    ,                        !- Mode 5 System Second Fuel Consumption Lookup Table Name
    ,                        !- Mode 5 System Third Fuel Consumption Lookup Table Name
    ,                        !- Mode 5 System Water Use Lookup Table Name
    ,                        !- Mode 5 Minimum Outdoor Air Temperature {C}
    ,                        !- Mode 5 Maximum Outdoor Air Temperature {C}
    ,                        !- Mode 5 Minimum Outdoor Air Humidity Ratio {kgWater/kgDryAir}
    0.1,                     !- Mode 5 Maximum Outdoor Air Humidity Ratio {kgWater/kgDryAir}
    ,                        !- Mode 5 Minimum Outdoor Air Relative Humidity {percent}
    100,                     !- Mode 5 Maximum Outdoor Air Relative Humidity {percent}
    ,                        !- Mode 5 Minimum Return Air Temperature {C}
    ,                        !- Mode 5 Maximum Return Air Temperature {C}
    ,                        !- Mode 5 Minimum Return Air Humidity Ratio {kgWater/kgDryAir}
    0.1,                     !- Mode 5 Maximum Return Air Humidity Ratio {kgWater/kgDryAir}
    ,                        !- Mode 5 Minimum Return Air Relative Humidity {percent}
    100,                     !- Mode 5 Maximum Return Air Relative Humidity {percent}
    0.1,                     !- Mode 5 Minimum Outdoor Air Fraction
    1,                       !- Mode 5 Maximum Outdoor Air Fraction
    0.1,                     !- Mode 5 Minimum Supply Air Mass Flow Rate Ratio
    1,                       !- Mode 5 Maximum Supply Air Mass Flow Rate Ratio
    ,                        !- Mode 6 Name
    ,                        !- Mode 6 Supply Air Temperature Lookup Table Name
    ,                        !- Mode 6 Supply Air Humidity Ratio Lookup Table Name
    ,                        !- Mode 6 System Electric Power Lookup Table Name
    ,                        !- Mode 6 Supply Fan Electric Power Lookup Table Name
    ,                        !- Mode 6 External Static Pressure Lookup Table Name
    ,                        !- Mode 6 System Second Fuel Consumption Lookup Table Name
    ,                        !- Mode 6 System Third Fuel Consumption Lookup Table Name
    ,                        !- Mode 6 System Water Use Lookup Table Name
    ,                        !- Mode 6 Minimum Outdoor Air Temperature {C}
    ,                        !- Mode 6 Maximum Outdoor Air Temperature {C}
    ,                        !- Mode 6 Minimum Outdoor Air Humidity Ratio {kgWater/kgDryAir}
    0.1,                     !- Mode 6 Maximum Outdoor Air Humidity Ratio {kgWater/kgDryAir}
    ,                        !- Mode 6 Minimum Outdoor Air Relative Humidity {percent}
    100,                     !- Mode 6 Maximum Outdoor Air Relative Humidity {percent}
    ,                        !- Mode 6 Minimum Return Air Temperature {C}
    ,                        !- Mode 6 Maximum Return Air Temperature {C}
    ,                        !- Mode 6 Minimum Return Air Humidity Ratio {kgWater/kgDryAir}
    0.1,                     !- Mode 6 Maximum Return Air Humidity Ratio {kgWater/kgDryAir}
    ,                        !- Mode 6 Minimum Return Air Relative Humidity {percent}
    100,                     !- Mode 6 Maximum Return Air Relative Humidity {percent}
    0.1,                     !- Mode 6 Minimum Outdoor Air Fraction
    1,                       !- Mode 6 Maximum Outdoor Air Fraction
    0.1,                     !- Mode 6 Minimum Supply Air Mass Flow Rate Ratio
    1,                       !- Mode 6 Maximum Supply Air Mass Flow Rate Ratio
    ,                        !- Mode 7 Name
    ,                        !- Mode 7 Supply Air Temperature Lookup Table Name
    ,                        !- Mode 7 Supply Air Humidity Ratio Lookup Table Name
    ,                        !- Mode 7 System Electric Power Lookup Table Name
    ,                        !- Mode 7 Supply Fan Electric Power Lookup Table Name
    ,                        !- Mode 7 External Static Pressure Lookup Table Name
    ,                        !- Mode 7 System Second Fuel Consumption Lookup Table Name
    ,                        !- Mode 7 System Third Fuel Consumption Lookup Table Name
    ,                        !- Mode 7 System Water Use Lookup Table Name
    ,                        !- Mode 7 Minimum Outdoor Air Temperature {C}
    ,                        !- Mode 7 Maximum Outdoor Air Temperature {C}
    ,                        !- Mode 7 Minimum Outdoor Air Humidity Ratio {kgWater/kgDryAir}
    0.1,                     !- Mode 7 Maximum Outdoor Air Humidity Ratio {kgWater/kgDryAir}
    ,                        !- Mode 7 Minimum Outdoor Air Relative Humidity {percent}
    100,                     !- Mode 7 Maximum Outdoor Air Relative Humidity {percent}
    ,                        !- Mode 7 Minimum Return Air Temperature {C}
    ,                        !- Mode 7 Maximum Return Air Temperature {C}
    ,                        !- Mode 7 Minimum Return Air Humidity Ratio {kgWater/kgDryAir}
    0.1,                     !- Mode 7 Maximum Return Air Humidity Ratio {kgWater/kgDryAir}
    ,                        !- Mode 7 Minimum Return Air Relative Humidity {percent}
    100,                     !- Mode 7 Maximum Return Air Relative Humidity {percent}
    0.1,                     !- Mode 7 Minimum Outdoor Air Fraction
    1,                       !- Mode 7 Maximum Outdoor Air Fraction
    0.1,                     !- Mode 7 Minimum Supply Air Mass Flow Rate Ratio
    1,                       !- Mode 7 Maximum Supply Air Mass Flow Rate Ratio
    ,                        !- Mode 8 Name
    ,                        !- Mode 8 Supply Air Temperature Lookup Table Name
    ,                        !- Mode 8 Supply Air Humidity Ratio Lookup Table Name
    ,                        !- Mode 8 System Electric Power Lookup Table Name
    ,                        !- Mode 8 Supply Fan Electric Power Lookup Table Name
    ,                        !- Mode 8 External Static Pressure Lookup Table Name
    ,                        !- Mode 8 System Second Fuel Consumption Lookup Table Name
    ,                        !- Mode 8 System Third Fuel Consumption Lookup Table Name
    ,                        !- Mode 8 System Water Use Lookup Table Name
    ,                        !- Mode 8 Minimum Outdoor Air Temperature {C}
    ,                        !- Mode 8 Maximum Outdoor Air Temperature {C}
    ,                        !- Mode 8 Minimum Outdoor Air Humidity Ratio {kgWater/kgDryAir}
    0.1,                     !- Mode 8 Maximum Outdoor Air Humidity Ratio {kgWater/kgDryAir}
    ,                        !- Mode 8 Minimum Outdoor Air Relative Humidity {percent}
    100,                     !- Mode 8 Maximum Outdoor Air Relative Humidity {percent}
    ,                        !- Mode 8 Minimum Return Air Temperature {C}
    ,                        !- Mode 8 Maximum Return Air Temperature {C}
    ,                        !- Mode 8 Minimum Return Air Humidity Ratio {kgWater/kgDryAir}
    0.1,                     !- Mode 8 Maximum Return Air Humidity Ratio {kgWater/kgDryAir}
    ,                        !- Mode 8 Minimum Return Air Relative Humidity {percent}
    100,                     !- Mode 8 Maximum Return Air Relative Humidity {percent}
    0.1,                     !- Mode 8 Minimum Outdoor Air Fraction
    1,                       !- Mode 8 Maximum Outdoor Air Fraction
    0.1,                     !- Mode 8 Minimum Supply Air Mass Flow Rate Ratio
    1,                       !- Mode 8 Maximum Supply Air Mass Flow Rate Ratio
    ,                        !- Mode 9 Name
    ,                        !- Mode 9 Supply Air Temperature Lookup Table Name
    ,                        !- Mode 9 Supply Air Humidity Ratio Lookup Table Name
    ,                        !- Mode 9 System Electric Power Lookup Table Name
    ,                        !- Mode 9 Supply Fan Electric Power Lookup Table Name
    ,                        !- Mode 9 External Static Pressure Lookup Table Name
    ,                        !- Mode 9 System Second Fuel Consumption Lookup Table Name
    ,                        !- Mode 9 System Third Fuel Consumption Lookup Table Name
    ,                        !- Mode 9 System Water Use Lookup Table Name
    ,                        !- Mode 9 Minimum Outdoor Air Temperature {C}
    ,                        !- Mode 9 Maximum Outdoor Air Temperature {C}
    ,                        !- Mode 9 Minimum Outdoor Air Humidity Ratio {kgWater/kgDryAir}
    0.1,                     !- Mode 9 Maximum Outdoor Air Humidity Ratio {kgWater/kgDryAir}
    ,                        !- Mode 9 Minimum Outdoor Air Relative Humidity {percent}
    100,                     !- Mode 9 Maximum Outdoor Air Relative Humidity {percent}
    ,                        !- Mode 9 Minimum Return Air Temperature {C}
    ,                        !- Mode 9 Maximum Return Air Temperature {C}
    ,                        !- Mode 9 Minimum Return Air Humidity Ratio {kgWater/kgDryAir}
    0.1,                     !- Mode 9 Maximum Return Air Humidity Ratio {kgWater/kgDryAir}
    ,                        !- Mode 9 Minimum Return Air Relative Humidity {percent}
    100,                     !- Mode 9 Maximum Return Air Relative Humidity {percent}
    0.1,                     !- Mode 9 Minimum Outdoor Air Fraction
    1,                       !- Mode 9 Maximum Outdoor Air Fraction
    0.1,                     !- Mode 9 Minimum Supply Air Mass Flow Rate Ratio
    1,                       !- Mode 9 Maximum Supply Air Mass Flow Rate Ratio
    ,                        !- Mode 10 Name
    ,                        !- Mode 10 Supply Air Temperature Lookup Table Name
    ,                        !- Mode 10 Supply Air Humidity Ratio Lookup Table Name
    ,                        !- Mode 10 System Electric Power Lookup Table Name
    ,                        !- Mode 10 Supply Fan Electric Power Lookup Table Name
    ,                        !- Mode 10 External Static Pressure Lookup Table Name
    ,                        !- Mode 10 System Second Fuel Consumption Lookup Table Name
    ,                        !- Mode 10 System Third Fuel Consumption Lookup Table Name
    ,                        !- Mode 10 System Water Use Lookup Table Name
    ,                        !- Mode 10 Minimum Outdoor Air Temperature {C}
    ,                        !- Mode 10 Maximum Outdoor Air Temperature {C}
    ,                        !- Mode 10 Minimum Outdoor Air Humidity Ratio {kgWater/kgDryAir}
    0.1,                     !- Mode 10 Maximum Outdoor Air Humidity Ratio {kgWater/kgDryAir}
    ,                        !- Mode 10 Minimum Outdoor Air Relative Humidity {percent}
    100,                     !- Mode 10 Maximum Outdoor Air Relative Humidity {percent}
    ,                        !- Mode 10 Minimum Return Air Temperature {C}
    ,                        !- Mode 10 Maximum Return Air Temperature {C}
    ,                        !- Mode 10 Minimum Return Air Humidity Ratio {kgWater/kgDryAir}
    0.1,                     !- Mode 10 Maximum Return Air Humidity Ratio {kgWater/kgDryAir}
    ,                        !- Mode 10 Minimum Return Air Relative Humidity {percent}
    100,                     !- Mode 10 Maximum Return Air Relative Humidity {percent}
    0.1,                     !- Mode 10 Minimum Outdoor Air Fraction
    1,                       !- Mode 10 Maximum Outdoor Air Fraction
    0.1,                     !- Mode 10 Minimum Supply Air Mass Flow Rate Ratio
    1,                       !- Mode 10 Maximum Supply Air Mass Flow Rate Ratio
    ,                        !- Mode 11 Name
    ,                        !- Mode 11 Supply Air Temperature Lookup Table Name
    ,                        !- Mode 11 Supply Air Humidity Ratio Lookup Table Name
    ,                        !- Mode 11 System Electric Power Lookup Table Name
    ,                        !- Mode 11 Supply Fan Electric Power Lookup Table Name
    ,                        !- Mode 11 External Static Pressure Lookup Table Name
    ,                        !- Mode 11 System Second Fuel Consumption Lookup Table Name
    ,                        !- Mode 11 System Third Fuel Consumption Lookup Table Name
    ,                        !- Mode 11 System Water Use Lookup Table Name
    ,                        !- Mode 11 Minimum Outdoor Air Temperature {C}
    ,                        !- Mode 11 Maximum Outdoor Air Temperature {C}
    ,                        !- Mode 11 Minimum Outdoor Air Humidity Ratio {kgWater/kgDryAir}
    0.1,                     !- Mode 11 Maximum Outdoor Air Humidity Ratio {kgWater/kgDryAir}
    ,                        !- Mode 11 Minimum Outdoor Air Relative Humidity {percent}
    100,                     !- Mode 11 Maximum Outdoor Air Relative Humidity {percent}
    ,                        !- Mode 11 Minimum Return Air Temperature {C}
    ,                        !- Mode 11 Maximum Return Air Temperature {C}
    ,                        !- Mode 11 Minimum Return Air Humidity Ratio {kgWater/kgDryAir}
    0.1,                     !- Mode 11 Maximum Return Air Humidity Ratio {kgWater/kgDryAir}
    ,                        !- Mode 11 Minimum Return Air Relative Humidity {percent}
    100,                     !- Mode 11 Maximum Return Air Relative Humidity {percent}
    0.1,                     !- Mode 11 Minimum Outdoor Air Fraction
    1,                       !- Mode 11 Maximum Outdoor Air Fraction
    0.1,                     !- Mode 11 Minimum Supply Air Mass Flow Rate Ratio
    1,                       !- Mode 11 Maximum Supply Air Mass Flow Rate Ratio
    ,                        !- Mode 12 Name
    ,                        !- Mode 12 Supply Air Temperature Lookup Table Name
    ,                        !- Mode 12 Supply Air Humidity Ratio Lookup Table Name
    ,                        !- Mode 12 System Electric Power Lookup Table Name
    ,                        !- Mode 12 Supply Fan Electric Power Lookup Table Name
    ,                        !- Mode 12 External Static Pressure Lookup Table Name
    ,                        !- Mode 12 System Second Fuel Consumption Lookup Table Name
    ,                        !- Mode 12 System Third Fuel Consumption Lookup Table Name
    ,                        !- Mode 12 System Water Use Lookup Table Name
    ,                        !- Mode 12 Minimum Outdoor Air Temperature {C}
    ,                        !- Mode 12 Maximum Outdoor Air Temperature {C}
    ,                        !- Mode 12 Minimum Outdoor Air Humidity Ratio {kgWater/kgDryAir}
    0.1,                     !- Mode 12 Maximum Outdoor Air Humidity Ratio {kgWater/kgDryAir}
    ,                        !- Mode 12 Minimum Outdoor Air Relative Humidity {percent}
    100,                     !- Mode 12 Maximum Outdoor Air Relative Humidity {percent}
    ,                        !- Mode 12 Minimum Return Air Temperature {C}
    ,                        !- Mode 12 Maximum Return Air Temperature {C}
    ,                        !- Mode 12 Minimum Return Air Humidity Ratio {kgWater/kgDryAir}
    0.1,                     !- Mode 12 Maximum Return Air Humidity Ratio {kgWater/kgDryAir}
    ,                        !- Mode 12 Minimum Return Air Relative Humidity {percent}
    100,                     !- Mode 12 Maximum Return Air Relative Humidity {percent}
    0.1,                     !- Mode 12 Minimum Outdoor Air Fraction
    1,                       !- Mode 12 Maximum Outdoor Air Fraction
    0.1,                     !- Mode 12 Minimum Supply Air Mass Flow Rate Ratio
    1,                       !- Mode 12 Maximum Supply Air Mass Flow Rate Ratio
    ,                        !- Mode 13 Name
    ,                        !- Mode 13 Supply Air Temperature Lookup Table Name
    ,                        !- Mode 13 Supply Air Humidity Ratio Lookup Table Name
    ,                        !- Mode 13 System Electric Power Lookup Table Name
    ,                        !- Mode 13 Supply Fan Electric Power Lookup Table Name
    ,                        !- Mode 13 External Static Pressure Lookup Table Name
    ,                        !- Mode 13 System Second Fuel Consumption Lookup Table Name
    ,                        !- Mode 13 System Third Fuel Consumption Lookup Table Name
    ,                        !- Mode 13 System Water Use Lookup Table Name
    ,                        !- Mode 13 Minimum Outdoor Air Temperature {C}
    ,                        !- Mode 13 Maximum Outdoor Air Temperature {C}
    ,                        !- Mode 13 Minimum Outdoor Air Humidity Ratio {kgWater/kgDryAir}
    0.1,                     !- Mode 13 Maximum Outdoor Air Humidity Ratio {kgWater/kgDryAir}
    ,                        !- Mode 13 Minimum Outdoor Air Relative Humidity {percent}
    100,                     !- Mode 13 Maximum Outdoor Air Relative Humidity {percent}
    ,                        !- Mode 13 Minimum Return Air Temperature {C}
    ,                        !- Mode 13 Maximum Return Air Temperature {C}
    ,                        !- Mode 13 Minimum Return Air Humidity Ratio {kgWater/kgDryAir}
    0.1,                     !- Mode 13 Maximum Return Air Humidity Ratio {kgWater/kgDryAir}
    ,                        !- Mode 13 Minimum Return Air Relative Humidity {percent}
    100,                     !- Mode 13 Maximum Return Air Relative Humidity {percent}
    0.1,                     !- Mode 13 Minimum Outdoor Air Fraction
    1,                       !- Mode 13 Maximum Outdoor Air Fraction
    0.1,                     !- Mode 13 Minimum Supply Air Mass Flow Rate Ratio
    1,                       !- Mode 13 Maximum Supply Air Mass Flow Rate Ratio
    ,                        !- Mode 14 Name
    ,                        !- Mode 14 Supply Air Temperature Lookup Table Name
    ,                        !- Mode 14 Supply Air Humidity Ratio Lookup Table Name
    ,                        !- Mode 14 System Electric Power Lookup Table Name
    ,                        !- Mode 14 Supply Fan Electric Power Lookup Table Name
    ,                        !- Mode 14 External Static Pressure Lookup Table Name
    ,                        !- Mode 14 System Second Fuel Consumption Lookup Table Name
    ,                        !- Mode 14 System Third Fuel Consumption Lookup Table Name
    ,                        !- Mode 14 System Water Use Lookup Table Name
    ,                        !- Mode 14 Minimum Outdoor Air Temperature {C}
    ,                        !- Mode 14 Maximum Outdoor Air Temperature {C}
    ,                        !- Mode 14 Minimum Outdoor Air Humidity Ratio {kgWater/kgDryAir}
    0.1,                     !- Mode 14 Maximum Outdoor Air Humidity Ratio {kgWater/kgDryAir}
    ,                        !- Mode 14 Minimum Outdoor Air Relative Humidity {percent}
    100,                     !- Mode 14 Maximum Outdoor Air Relative Humidity {percent}
    ,                        !- Mode 14 Minimum Return Air Temperature {C}
    ,                        !- Mode 14 Maximum Return Air Temperature {C}
    ,                        !- Mode 14 Minimum Return Air Humidity Ratio {kgWater/kgDryAir}
    0.1,                     !- Mode 14 Maximum Return Air Humidity Ratio {kgWater/kgDryAir}
    ,                        !- Mode 14 Minimum Return Air Relative Humidity {percent}
    100,                     !- Mode 14 Maximum Return Air Relative Humidity {percent}
    0.1,                     !- Mode 14 Minimum Outdoor Air Fraction
    1,                       !- Mode 14 Maximum Outdoor Air Fraction
    0.1,                     !- Mode 14 Minimum Supply Air Mass Flow Rate Ratio
    1,                       !- Mode 14 Maximum Supply Air Mass Flow Rate Ratio
    ,                        !- Mode 15 Name
    ,                        !- Mode 15 Supply Air Temperature Lookup Table Name
    ,                        !- Mode 15 Supply Air Humidity Ratio Lookup Table Name
    ,                        !- Mode 15 System Electric Power Lookup Table Name
    ,                        !- Mode 15 Supply Fan Electric Power Lookup Table Name
    ,                        !- Mode 15 External Static Pressure Lookup Table Name
    ,                        !- Mode 15 System Second Fuel Consumption Lookup Table Name
    ,                        !- Mode 15 System Third Fuel Consumption Lookup Table Name
    ,                        !- Mode 15 System Water Use Lookup Table Name
    ,                        !- Mode 15 Minimum Outdoor Air Temperature {C}
    ,                        !- Mode 15 Maximum Outdoor Air Temperature {C}
    ,                        !- Mode 15 Minimum Outdoor Air Humidity Ratio {kgWater/kgDryAir}
    0.1,                     !- Mode 15 Maximum Outdoor Air Humidity Ratio {kgWater/kgDryAir}
    ,                        !- Mode 15 Minimum Outdoor Air Relative Humidity {percent}
    100,                     !- Mode 15 Maximum Outdoor Air Relative Humidity {percent}
    ,                        !- Mode 15 Minimum Return Air Temperature {C}
    ,                        !- Mode 15 Maximum Return Air Temperature {C}
    ,                        !- Mode 15 Minimum Return Air Humidity Ratio {kgWater/kgDryAir}
    0.1,                     !- Mode 15 Maximum Return Air Humidity Ratio {kgWater/kgDryAir}
    ,                        !- Mode 15 Minimum Return Air Relative Humidity {percent}
    100,                     !- Mode 15 Maximum Return Air Relative Humidity {percent}
    0.1,                     !- Mode 15 Minimum Outdoor Air Fraction
    1,                       !- Mode 15 Maximum Outdoor Air Fraction
    0.1,                     !- Mode 15 Minimum Supply Air Mass Flow Rate Ratio
    1,                       !- Mode 15 Maximum Supply Air Mass Flow Rate Ratio
    ,                        !- Mode 16 Name
    ,                        !- Mode 16 Supply Air Temperature Lookup Table Name
    ,                        !- Mode 16 Supply Air Humidity Ratio Lookup Table Name
    ,                        !- Mode 16 System Electric Power Lookup Table Name
    ,                        !- Mode 16 Supply Fan Electric Power Lookup Table Name
    ,                        !- Mode 16 External Static Pressure Lookup Table Name
    ,                        !- Mode 16 System Second Fuel Consumption Lookup Table Name
    ,                        !- Mode 16 System Third Fuel Consumption Lookup Table Name
    ,                        !- Mode 16 System Water Use Lookup Table Name
    ,                        !- Mode 16 Minimum Outdoor Air Temperature {C}
    ,                        !- Mode 16 Maximum Outdoor Air Temperature {C}
    ,                        !- Mode 16 Minimum Outdoor Air Humidity Ratio {kgWater/kgDryAir}
    0.1,                     !- Mode 16 Maximum Outdoor Air Humidity Ratio {kgWater/kgDryAir}
    ,                        !- Mode 16 Minimum Outdoor Air Relative Humidity {percent}
    100,                     !- Mode 16 Maximum Outdoor Air Relative Humidity {percent}
    ,                        !- Mode 16 Minimum Return Air Temperature {C}
    ,                        !- Mode 16 Maximum Return Air Temperature {C}
    ,                        !- Mode 16 Minimum Return Air Humidity Ratio {kgWater/kgDryAir}
    0.1,                     !- Mode 16 Maximum Return Air Humidity Ratio {kgWater/kgDryAir}
    ,                        !- Mode 16 Minimum Return Air Relative Humidity {percent}
    100,                     !- Mode 16 Maximum Return Air Relative Humidity {percent}
    0.1,                     !- Mode 16 Minimum Outdoor Air Fraction
    1,                       !- Mode 16 Maximum Outdoor Air Fraction
    0.1,                     !- Mode 16 Minimum Supply Air Mass Flow Rate Ratio
    1,                       !- Mode 16 Maximum Supply Air Mass Flow Rate Ratio
    ,                        !- Mode 17 Name
    ,                        !- Mode 17 Supply Air Temperature Lookup Table Name
    ,                        !- Mode 17 Supply Air Humidity Ratio Lookup Table Name
    ,                        !- Mode 17 System Electric Power Lookup Table Name
    ,                        !- Mode 17 Supply Fan Electric Power Lookup Table Name
    ,                        !- Mode 17 External Static Pressure Lookup Table Name
    ,                        !- Mode 17 System Second Fuel Consumption Lookup Table Name
    ,                        !- Mode 17 System Third Fuel Consumption Lookup Table Name
    ,                        !- Mode 17 System Water Use Lookup Table Name
    ,                        !- Mode 17 Minimum Outdoor Air Temperature {C}
    ,                        !- Mode 17 Maximum Outdoor Air Temperature {C}
    ,                        !- Mode 17 Minimum Outdoor Air Humidity Ratio {kgWater/kgDryAir}
    0.1,                     !- Mode 17 Maximum Outdoor Air Humidity Ratio {kgWater/kgDryAir}
    ,                        !- Mode 17 Minimum Outdoor Air Relative Humidity {percent}
    100,                     !- Mode 17 Maximum Outdoor Air Relative Humidity {percent}
    ,                        !- Mode 17 Minimum Return Air Temperature {C}
    ,                        !- Mode 17 Maximum Return Air Temperature {C}
    ,                        !- Mode 17 Minimum Return Air Humidity Ratio {kgWater/kgDryAir}
    0.1,                     !- Mode 17 Maximum Return Air Humidity Ratio {kgWater/kgDryAir}
    ,                        !- Mode 17 Minimum Return Air Relative Humidity {percent}
    100,                     !- Mode 17 Maximum Return Air Relative Humidity {percent}
    0.1,                     !- Mode 17 Minimum Outdoor Air Fraction
    1,                       !- Mode 17 Maximum Outdoor Air Fraction
    0.1,                     !- Mode 17 Minimum Supply Air Mass Flow Rate Ratio
    1,                       !- Mode 17 Maximum Supply Air Mass Flow Rate Ratio
    ,                        !- Mode 18 Name
    ,                        !- Mode 18 Supply Air Temperature Lookup Table Name
    ,                        !- Mode 18 Supply Air Humidity Ratio Lookup Table Name
    ,                        !- Mode 18 System Electric Power Lookup Table Name
    ,                        !- Mode 18 Supply Fan Electric Power Lookup Table Name
    ,                        !- Mode 18 External Static Pressure Lookup Table Name
    ,                        !- Mode 18 System Second Fuel Consumption Lookup Table Name
    ,                        !- Mode 18 System Third Fuel Consumption Lookup Table Name
    ,                        !- Mode 18 System Water Use Lookup Table Name
    ,                        !- Mode 18 Minimum Outdoor Air Temperature {C}
    ,                        !- Mode 18 Maximum Outdoor Air Temperature {C}
    ,                        !- Mode 18 Minimum Outdoor Air Humidity Ratio {kgWater/kgDryAir}
    0.1,                     !- Mode 18 Maximum Outdoor Air Humidity Ratio {kgWater/kgDryAir}
    ,                        !- Mode 18 Minimum Outdoor Air Relative Humidity {percent}
    100,                     !- Mode 18 Maximum Outdoor Air Relative Humidity {percent}
    ,                        !- Mode 18 Minimum Return Air Temperature {C}
    ,                        !- Mode 18 Maximum Return Air Temperature {C}
    ,                        !- Mode 18 Minimum Return Air Humidity Ratio {kgWater/kgDryAir}
    0.1,                     !- Mode 18 Maximum Return Air Humidity Ratio {kgWater/kgDryAir}
    ,                        !- Mode 18 Minimum Return Air Relative Humidity {percent}
    100,                     !- Mode 18 Maximum Return Air Relative Humidity {percent}
    0.1,                     !- Mode 18 Minimum Outdoor Air Fraction
    1,                       !- Mode 18 Maximum Outdoor Air Fraction
    0.1,                     !- Mode 18 Minimum Supply Air Mass Flow Rate Ratio
    1,                       !- Mode 18 Maximum Supply Air Mass Flow Rate Ratio
    ,                        !- Mode 19 Name
    ,                        !- Mode 19 Supply Air Temperature Lookup Table Name
    ,                        !- Mode 19 Supply Air Humidity Ratio Lookup Table Name
    ,                        !- Mode 19 System Electric Power Lookup Table Name
    ,                        !- Mode 19 Supply Fan Electric Power Lookup Table Name
    ,                        !- Mode 19 External Static Pressure Lookup Table Name
    ,                        !- Mode 19 System Second Fuel Consumption Lookup Table Name
    ,                        !- Mode 19 System Third Fuel Consumption Lookup Table Name
    ,                        !- Mode 19 System Water Use Lookup Table Name
    ,                        !- Mode 19 Minimum Outdoor Air Temperature {C}
    ,                        !- Mode 19 Maximum Outdoor Air Temperature {C}
    ,                        !- Mode 19 Minimum Outdoor Air Humidity Ratio {kgWater/kgDryAir}
    0.1,                     !- Mode 19 Maximum Outdoor Air Humidity Ratio {kgWater/kgDryAir}
    ,                        !- Mode 19 Minimum Outdoor Air Relative Humidity {percent}
    100,                     !- Mode 19 Maximum Outdoor Air Relative Humidity {percent}
    ,                        !- Mode 19 Minimum Return Air Temperature {C}
    ,                        !- Mode 19 Maximum Return Air Temperature {C}
    ,                        !- Mode 19 Minimum Return Air Humidity Ratio {kgWater/kgDryAir}
    0.1,                     !- Mode 19 Maximum Return Air Humidity Ratio {kgWater/kgDryAir}
    ,                        !- Mode 19 Minimum Return Air Relative Humidity {percent}
    100,                     !- Mode 19 Maximum Return Air Relative Humidity {percent}
    0.1,                     !- Mode 19 Minimum Outdoor Air Fraction
    1,                       !- Mode 19 Maximum Outdoor Air Fraction
    0.1,                     !- Mode 19 Minimum Supply Air Mass Flow Rate Ratio
    1,                       !- Mode 19 Maximum Supply Air Mass Flow Rate Ratio
    ,                        !- Mode 20 Name
    ,                        !- Mode 20 Supply Air Temperature Lookup Table Name
    ,                        !- Mode 20 Supply Air Humidity Ratio Lookup Table Name
    ,                        !- Mode 20 System Electric Power Lookup Table Name
    ,                        !- Mode 20 Supply Fan Electric Power Lookup Table Name
    ,                        !- Mode 20 External Static Pressure Lookup Table Name
    ,                        !- Mode 20 System Second Fuel Consumption Lookup Table Name
    ,                        !- Mode 20 System Third Fuel Consumption Lookup Table Name
    ,                        !- Mode 20 System Water Use Lookup Table Name
    ,                        !- Mode 20 Minimum Outdoor Air Temperature {C}
    ,                        !- Mode 20 Maximum Outdoor Air Temperature {C}
    ,                        !- Mode 20 Minimum Outdoor Air Humidity Ratio {kgWater/kgDryAir}
    0.1,                     !- Mode 20 Maximum Outdoor Air Humidity Ratio {kgWater/kgDryAir}
    ,                        !- Mode 20 Minimum Outdoor Air Relative Humidity {percent}
    100,                     !- Mode 20 Maximum Outdoor Air Relative Humidity {percent}
    ,                        !- Mode 20 Minimum Return Air Temperature {C}
    ,                        !- Mode 20 Maximum Return Air Temperature {C}
    ,                        !- Mode 20 Minimum Return Air Humidity Ratio {kgWater/kgDryAir}
    0.1,                     !- Mode 20 Maximum Return Air Humidity Ratio {kgWater/kgDryAir}
    ,                        !- Mode 20 Minimum Return Air Relative Humidity {percent}
    100,                     !- Mode 20 Maximum Return Air Relative Humidity {percent}
    0.1,                     !- Mode 20 Minimum Outdoor Air Fraction
    1,                       !- Mode 20 Maximum Outdoor Air Fraction
    0.1,                     !- Mode 20 Minimum Supply Air Mass Flow Rate Ratio
    1,                       !- Mode 20 Maximum Supply Air Mass Flow Rate Ratio
    ,                        !- Mode 21 Name
    ,                        !- Mode 21 Supply Air Temperature Lookup Table Name
    ,                        !- Mode 21 Supply Air Humidity Ratio Lookup Table Name
    ,                        !- Mode 21 System Electric Power Lookup Table Name
    ,                        !- Mode 21 Supply Fan Electric Power Lookup Table Name
    ,                        !- Mode 21 External Static Pressure Lookup Table Name
    ,                        !- Mode 21 System Second Fuel Consumption Lookup Table Name
    ,                        !- Mode 21 System Third Fuel Consumption Lookup Table Name
    ,                        !- Mode 21 System Water Use Lookup Table Name
    ,                        !- Mode 21 Minimum Outdoor Air Temperature {C}
    ,                        !- Mode 21 Maximum Outdoor Air Temperature {C}
    ,                        !- Mode 21 Minimum Outdoor Air Humidity Ratio {kgWater/kgDryAir}
    0.1,                     !- Mode 21 Maximum Outdoor Air Humidity Ratio {kgWater/kgDryAir}
    ,                        !- Mode 21 Minimum Outdoor Air Relative Humidity {percent}
    100,                     !- Mode 21 Maximum Outdoor Air Relative Humidity {percent}
    ,                        !- Mode 21 Minimum Return Air Temperature {C}
    ,                        !- Mode 21 Maximum Return Air Temperature {C}
    ,                        !- Mode 21 Minimum Return Air Humidity Ratio {kgWater/kgDryAir}
    0.1,                     !- Mode 21 Maximum Return Air Humidity Ratio {kgWater/kgDryAir}
    ,                        !- Mode 21 Minimum Return Air Relative Humidity {percent}
    100,                     !- Mode 21 Maximum Return Air Relative Humidity {percent}
    0.1,                     !- Mode 21 Minimum Outdoor Air Fraction
    1,                       !- Mode 21 Maximum Outdoor Air Fraction
    0.1,                     !- Mode 21 Minimum Supply Air Mass Flow Rate Ratio
    1,                       !- Mode 21 Maximum Supply Air Mass Flow Rate Ratio
    ,                        !- Mode 22 Name
    ,                        !- Mode 22 Supply Air Temperature Lookup Table Name
    ,                        !- Mode 22 Supply Air Humidity Ratio Lookup Table Name
    ,                        !- Mode 22 System Electric Power Lookup Table Name
    ,                        !- Mode 22 Supply Fan Electric Power Lookup Table Name
    ,                        !- Mode 22 External Static Pressure Lookup Table Name
    ,                        !- Mode 22 System Second Fuel Consumption Lookup Table Name
    ,                        !- Mode 22 System Third Fuel Consumption Lookup Table Name
    ,                        !- Mode 22 System Water Use Lookup Table Name
    ,                        !- Mode 22 Minimum Outdoor Air Temperature {C}
    ,                        !- Mode 22 Maximum Outdoor Air Temperature {C}
    ,                        !- Mode 22 Minimum Outdoor Air Humidity Ratio {kgWater/kgDryAir}
    0.1,                     !- Mode 22 Maximum Outdoor Air Humidity Ratio {kgWater/kgDryAir}
    ,                        !- Mode 22 Minimum Outdoor Air Relative Humidity {percent}
    100,                     !- Mode 22 Maximum Outdoor Air Relative Humidity {percent}
    ,                        !- Mode 22 Minimum Return Air Temperature {C}
    ,                        !- Mode 22 Maximum Return Air Temperature {C}
    ,                        !- Mode 22 Minimum Return Air Humidity Ratio {kgWater/kgDryAir}
    0.1,                     !- Mode 22 Maximum Return Air Humidity Ratio {kgWater/kgDryAir}
    ,                        !- Mode 22 Minimum Return Air Relative Humidity {percent}
    100,                     !- Mode 22 Maximum Return Air Relative Humidity {percent}
    0.1,                     !- Mode 22 Minimum Outdoor Air Fraction
    1,                       !- Mode 22 Maximum Outdoor Air Fraction
    0.1,                     !- Mode 22 Minimum Supply Air Mass Flow Rate Ratio
    1,                       !- Mode 22 Maximum Supply Air Mass Flow Rate Ratio
    ,                        !- Mode 23 Name
    ,                        !- Mode 23 Supply Air Temperature Lookup Table Name
    ,                        !- Mode 23 Supply Air Humidity Ratio Lookup Table Name
    ,                        !- Mode 23 System Electric Power Lookup Table Name
    ,                        !- Mode 23 Supply Fan Electric Power Lookup Table Name
    ,                        !- Mode 23 External Static Pressure Lookup Table Name
    ,                        !- Mode 23 System Second Fuel Consumption Lookup Table Name
    ,                        !- Mode 23 System Third Fuel Consumption Lookup Table Name
    ,                        !- Mode 23 System Water Use Lookup Table Name
    ,                        !- Mode 23 Minimum Outdoor Air Temperature {C}
    ,                        !- Mode 23 Maximum Outdoor Air Temperature {C}
    ,                        !- Mode 23 Minimum Outdoor Air Humidity Ratio {kgWater/kgDryAir}
    0.1,                     !- Mode 23 Maximum Outdoor Air Humidity Ratio {kgWater/kgDryAir}
    ,                        !- Mode 23 Minimum Outdoor Air Relative Humidity {percent}
    100,                     !- Mode 23 Maximum Outdoor Air Relative Humidity {percent}
    ,                        !- Mode 23 Minimum Return Air Temperature {C}
    ,                        !- Mode 23 Maximum Return Air Temperature {C}
    ,                        !- Mode 23 Minimum Return Air Humidity Ratio {kgWater/kgDryAir}
    0.1,                     !- Mode 23 Maximum Return Air Humidity Ratio {kgWater/kgDryAir}
    ,                        !- Mode 23 Minimum Return Air Relative Humidity {percent}
    100,                     !- Mode 23 Maximum Return Air Relative Humidity {percent}
    0.1,                     !- Mode 23 Minimum Outdoor Air Fraction
    1,                       !- Mode 23 Maximum Outdoor Air Fraction
    0.1,                     !- Mode 23 Minimum Supply Air Mass Flow Rate Ratio
    1,                       !- Mode 23 Maximum Supply Air Mass Flow Rate Ratio
    ,                        !- Mode 24 Name
    ,                        !- Mode 24 Supply Air Temperature Lookup Table Name
    ,                        !- Mode 24 Supply Air Humidity Ratio Lookup Table Name
    ,                        !- Mode 24 System Electric Power Lookup Table Name
    ,                        !- Mode 24 Supply Fan Electric Power Lookup Table Name
    ,                        !- Mode 24 External Static Pressure Lookup Table Name
    ,                        !- Mode 24 System Second Fuel Consumption Lookup Table Name
    ,                        !- Mode 24 System Third Fuel Consumption Lookup Table Name
    ,                        !- Mode 24 System Water Use Lookup Table Name
    ,                        !- Mode 24 Minimum Outdoor Air Temperature {C}
    ,                        !- Mode 24 Maximum Outdoor Air Temperature {C}
    ,                        !- Mode 24 Minimum Outdoor Air Humidity Ratio {kgWater/kgDryAir}
    0.1,                     !- Mode 24 Maximum Outdoor Air Humidity Ratio {kgWater/kgDryAir}
    ,                        !- Mode 24 Minimum Outdoor Air Relative Humidity {percent}
    100,                     !- Mode 24 Maximum Outdoor Air Relative Humidity {percent}
    ,                        !- Mode 24 Minimum Return Air Temperature {C}
    ,                        !- Mode 24 Maximum Return Air Temperature {C}
    ,                        !- Mode 24 Minimum Return Air Humidity Ratio {kgWater/kgDryAir}
    0.1,                     !- Mode 24 Maximum Return Air Humidity Ratio {kgWater/kgDryAir}
    ,                        !- Mode 24 Minimum Return Air Relative Humidity {percent}
    100,                     !- Mode 24 Maximum Return Air Relative Humidity {percent}
    0.1,                     !- Mode 24 Minimum Outdoor Air Fraction
    1,                       !- Mode 24 Maximum Outdoor Air Fraction
    0.1,                     !- Mode 24 Minimum Supply Air Mass Flow Rate Ratio
    1,                       !- Mode 24 Maximum Supply Air Mass Flow Rate Ratio
    ,                        !- Mode 25 Name
    ,                        !- Mode 25 Supply Air Temperature Lookup Table Name
    ,                        !- Mode 25 Supply Air Humidity Ratio Lookup Table Name
    ,                        !- Mode 25 System Electric Power Lookup Table Name
    ,                        !- Mode 25 Supply Fan Electric Power Lookup Table Name
    ,                        !- Mode 25 External Static Pressure Lookup Table Name
    ,                        !- Mode 25 System Second Fuel Consumption Lookup Table Name
    ,                        !- Mode 25 System Third Fuel Consumption Lookup Table Name
    ,                        !- Mode 25 System Water Use Lookup Table Name
    ,                        !- Mode 25 Minimum Outdoor Air Temperature {C}
    ,                        !- Mode 25 Maximum Outdoor Air Temperature {C}
    ,                        !- Mode 25 Minimum Outdoor Air Humidity Ratio {kgWater/kgDryAir}
    0.1,                     !- Mode 25 Maximum Outdoor Air Humidity Ratio {kgWater/kgDryAir}
    ,                        !- Mode 25 Minimum Outdoor Air Relative Humidity {percent}
    100,                     !- Mode 25 Maximum Outdoor Air Relative Humidity {percent}
    ,                        !- Mode 25 Minimum Return Air Temperature {C}
    ,                        !- Mode 25 Maximum Return Air Temperature {C}
    ,                        !- Mode 25 Minimum Return Air Humidity Ratio {kgWater/kgDryAir}
    0.1,                     !- Mode 25 Maximum Return Air Humidity Ratio {kgWater/kgDryAir}
    ,                        !- Mode 25 Minimum Return Air Relative Humidity {percent}
    100,                     !- Mode 25 Maximum Return Air Relative Humidity {percent}
    0.1,                     !- Mode 25 Minimum Outdoor Air Fraction
    1,                       !- Mode 25 Maximum Outdoor Air Fraction
    0.1,                     !- Mode 25 Minimum Supply Air Mass Flow Rate Ratio
    1;                       !- Mode 25 Maximum Supply Air Mass Flow Rate Ratio


!-   ===========  ALL OBJECTS IN CLASS: ZONEHVAC:OUTDOORAIRUNIT ===========

ZoneHVAC:OutdoorAirUnit,
    ,                        !- Name
    ,                        !- Availability Schedule Name
    ,                        !- Zone Name
    ,                        !- Outdoor Air Flow Rate {m3/s}
    ,                        !- Outdoor Air Schedule Name
    ,                        !- Supply Fan Name
    DrawThrough,             !- Supply Fan Placement
    ,                        !- Exhaust Fan Name
    ,                        !- Exhaust Air Flow Rate {m3/s}
    ,                        !- Exhaust Air Schedule Name
    NeutralControl,          !- Unit Control Type
    ,                        !- High Air Control Temperature Schedule Name
    ,                        !- Low Air Control Temperature Schedule Name
    ,                        !- Outdoor Air Node Name
    ,                        !- AirOutlet Node Name
    ,                        !- AirInlet Node Name
    ,                        !- Supply FanOutlet Node Name
    ;                        !- Outdoor Air Unit List Name


!-   ===========  ALL OBJECTS IN CLASS: ZONEHVAC:OUTDOORAIRUNIT:EQUIPMENTLIST ===========

ZoneHVAC:OutdoorAirUnit:EquipmentList,
    ;                        !- Name


!-   ===========  ALL OBJECTS IN CLASS: ZONEHVAC:TERMINALUNIT:VARIABLEREFRIGERANTFLOW ===========

ZoneHVAC:TerminalUnit:VariableRefrigerantFlow,
    ,                        !- Zone Terminal Unit Name
    ,                        !- Terminal Unit Availability Schedule
    ,                        !- Terminal Unit Air Inlet Node Name
    ,                        !- Terminal Unit Air Outlet Node Name
    ,                        !- Cooling Supply Air Flow Rate {m3/s}
    ,                        !- No Cooling Supply Air Flow Rate {m3/s}
    ,                        !- Heating Supply Air Flow Rate {m3/s}
    ,                        !- No Heating Supply Air Flow Rate {m3/s}
    ,                        !- Cooling Outdoor Air Flow Rate {m3/s}
    ,                        !- Heating Outdoor Air Flow Rate {m3/s}
    ,                        !- No Load Outdoor Air Flow Rate {m3/s}
    ,                        !- Supply Air Fan Operating Mode Schedule Name
    BlowThrough,             !- Supply Air Fan Placement
    Fan:ConstantVolume,      !- Supply Air Fan Object Type
    ,                        !- Supply Air Fan Object Name
    ,                        !- Outside Air Mixer Object Type
    ,                        !- Outside Air Mixer Object Name
    ,                        !- Cooling Coil Object Type
    ,                        !- Cooling Coil Object Name
    ,                        !- Heating Coil Object Type
    ,                        !- Heating Coil Object Name
    ,                        !- Zone Terminal Unit On Parasitic Electric Energy Use {W}
    ,                        !- Zone Terminal Unit Off Parasitic Electric Energy Use {W}
    1,                       !- Rated Heating Capacity Sizing Ratio {W/W}
    ,                        !- Availability Manager List Name
    ,                        !- Design Specification ZoneHVAC Sizing Object Name
    ,                        !- Supplemental Heating Coil Object Type
    ,                        !- Supplemental Heating Coil Name
    autosize,                !- Maximum Supply Air Temperature from Supplemental Heater {C}
    21;                      !- Maximum Outdoor Dry-Bulb Temperature for Supplemental Heater Operation {C}


!-   ===========  ALL OBJECTS IN CLASS: ZONEHVAC:BASEBOARD:RADIANTCONVECTIVE:WATER:DESIGN ===========

ZoneHVAC:Baseboard:RadiantConvective:Water:Design,
    ,                        !- Name
    HeatingDesignCapacity,   !- Heating Design Capacity Method
    ,                        !- Heating Design Capacity Per Floor Area {W/m2}
    1,                       !- Fraction of Autosized Heating Design Capacity
    0.001,                   !- Convergence Tolerance
    ,                        !- Fraction Radiant
    ;                        !- Fraction of Radiant Energy Incident on People


!-   ===========  ALL OBJECTS IN CLASS: ZONEHVAC:BASEBOARD:RADIANTCONVECTIVE:WATER ===========

ZoneHVAC:Baseboard:RadiantConvective:Water,
    ,                        !- Name
    ,                        !- Design Object
    ,                        !- Availability Schedule Name
    ,                        !- Inlet Node Name
    ,                        !- Outlet Node Name
    87.78,                   !- Rated Average Water Temperature {C}
    0.063,                   !- Rated Water Mass Flow Rate {kg/s}
    autosize,                !- Heating Design Capacity {W}
    ;                        !- Maximum Water Flow Rate {m3/s}


!-   ===========  ALL OBJECTS IN CLASS: ZONEHVAC:BASEBOARD:RADIANTCONVECTIVE:STEAM:DESIGN ===========

ZoneHVAC:Baseboard:RadiantConvective:Steam:Design,
    ,                        !- Name
    HeatingDesignCapacity,   !- Heating Design Capacity Method
    ,                        !- Heating Design Capacity Per Floor Area {W/m2}
    1,                       !- Fraction of Autosized Heating Design Capacity
    0.001,                   !- Convergence Tolerance
    ,                        !- Fraction Radiant
    ;                        !- Fraction of Radiant Energy Incident on People


!-   ===========  ALL OBJECTS IN CLASS: ZONEHVAC:BASEBOARD:RADIANTCONVECTIVE:STEAM ===========

ZoneHVAC:Baseboard:RadiantConvective:Steam,
    ,                        !- Name
    ,                        !- Design Object
    ,                        !- Availability Schedule Name
    ,                        !- Inlet Node Name
    ,                        !- Outlet Node Name
    autosize,                !- Heating Design Capacity {W}
    5,                       !- Degree of SubCooling {deltaC}
    ;                        !- Maximum Steam Flow Rate {m3/s}


!-   ===========  ALL OBJECTS IN CLASS: ZONEHVAC:BASEBOARD:RADIANTCONVECTIVE:ELECTRIC ===========

ZoneHVAC:Baseboard:RadiantConvective:Electric,
    ,                        !- Name
    ,                        !- Availability Schedule Name
    HeatingDesignCapacity,   !- Heating Design Capacity Method
    autosize,                !- Heating Design Capacity {W}
    ,                        !- Heating Design Capacity Per Floor Area {W/m2}
    1,                       !- Fraction of Autosized Heating Design Capacity
    1,                       !- Efficiency
    ;                        !- Fraction Radiant


!-   ===========  ALL OBJECTS IN CLASS: ZONEHVAC:COOLINGPANEL:RADIANTCONVECTIVE:WATER ===========

ZoneHVAC:CoolingPanel:RadiantConvective:Water,
    ,                        !- Name
    ,                        !- Availability Schedule Name
    ,                        !- Water Inlet Node Name
    ,                        !- Water Outlet Node Name
    5,                       !- Rated Inlet Water Temperature {C}
    24,                      !- Rated Inlet Space Temperature {C}
    0.063,                   !- Rated Water Mass Flow Rate {kg/s}
    CoolingDesignCapacity,   !- Cooling Design Capacity Method
    ,                        !- Cooling Design Capacity {W}
    ,                        !- Cooling Design Capacity Per Floor Area {W/m2}
    ,                        !- Fraction of Autosized Cooling Design Capacity
    ,                        !- Maximum Chilled Water Flow Rate {m3/s}
    MeanAirTemperature,      !- Control Type
    0.5,                     !- Cooling Control Throttling Range {deltaC}
    ,                        !- Cooling Control Temperature Schedule Name
    SimpleOff,               !- Condensation Control Type
    1,                       !- Condensation Control Dewpoint Offset {C}
    ;                        !- Fraction Radiant


!-   ===========  ALL OBJECTS IN CLASS: ZONEHVAC:BASEBOARD:CONVECTIVE:WATER ===========

ZoneHVAC:Baseboard:Convective:Water,
    ,                        !- Name
    ,                        !- Availability Schedule Name
    ,                        !- Inlet Node Name
    ,                        !- Outlet Node Name
    HeatingDesignCapacity,   !- Heating Design Capacity Method
    autosize,                !- Heating Design Capacity {W}
    ,                        !- Heating Design Capacity Per Floor Area {W/m2}
    1,                       !- Fraction of Autosized Heating Design Capacity
    ,                        !- U-Factor Times Area Value {W/K}
    ,                        !- Maximum Water Flow Rate {m3/s}
    0.001;                   !- Convergence Tolerance


!-   ===========  ALL OBJECTS IN CLASS: ZONEHVAC:BASEBOARD:CONVECTIVE:ELECTRIC ===========

ZoneHVAC:Baseboard:Convective:Electric,
    ,                        !- Name
    ,                        !- Availability Schedule Name
    HeatingDesignCapacity,   !- Heating Design Capacity Method
    autosize,                !- Heating Design Capacity {W}
    ,                        !- Heating Design Capacity Per Floor Area {W/m2}
    1,                       !- Fraction of Autosized Heating Design Capacity
    1;                       !- Efficiency


!-   ===========  ALL OBJECTS IN CLASS: ZONEHVAC:LOWTEMPERATURERADIANT:VARIABLEFLOW ===========

ZoneHVAC:LowTemperatureRadiant:VariableFlow,
    ,                        !- Name
    ,                        !- Design Object
    ,                        !- Availability Schedule Name
    ,                        !- Zone Name
    ,                        !- Surface Name or Radiant Surface Group Name
    autosize,                !- Hydronic Tubing Length {m}
    autosize,                !- Heating Design Capacity {W}
    ,                        !- Maximum Hot Water Flow {m3/s}
    ,                        !- Heating Water Inlet Node Name
    ,                        !- Heating Water Outlet Node Name
    ,                        !- Cooling Design Capacity {W}
    ,                        !- Maximum Cold Water Flow {m3/s}
    ,                        !- Cooling Water Inlet Node Name
    ,                        !- Cooling Water Outlet Node Name
    OnePerSurface,           !- Number of Circuits
    106.7;                   !- Circuit Length {m}


!-   ===========  ALL OBJECTS IN CLASS: ZONEHVAC:LOWTEMPERATURERADIANT:VARIABLEFLOW:DESIGN ===========

ZoneHVAC:LowTemperatureRadiant:VariableFlow:Design,
    ,                        !- Name
    ConvectionOnly,          !- Fluid to Radiant Surface Heat Transfer Model
    0.013,                   !- Hydronic Tubing Inside Diameter {m}
    0.016,                   !- Hydronic Tubing Outside Diameter {m}
    0.35,                    !- Hydronic Tubing Conductivity {W/m-K}
    MeanAirTemperature,      !- Temperature Control Type
    HalfFlowPower,           !- Setpoint Control Type
    HeatingDesignCapacity,   !- Heating Design Capacity Method
    ,                        !- Heating Design Capacity Per Floor Area {W/m2}
    1,                       !- Fraction of Autosized Heating Design Capacity
    0.5,                     !- Heating Control Throttling Range {deltaC}
    ,                        !- Heating Control Temperature Schedule Name
    CoolingDesignCapacity,   !- Cooling Design Capacity Method
    ,                        !- Cooling Design Capacity Per Floor Area {W/m2}
    ,                        !- Fraction of Autosized Cooling Design Capacity
    0.5,                     !- Cooling Control Throttling Range {deltaC}
    ,                        !- Cooling Control Temperature Schedule Name
    SimpleOff,               !- Condensation Control Type
    1;                       !- Condensation Control Dewpoint Offset {C}


!-   ===========  ALL OBJECTS IN CLASS: ZONEHVAC:LOWTEMPERATURERADIANT:CONSTANTFLOW ===========

ZoneHVAC:LowTemperatureRadiant:ConstantFlow,
    ,                        !- Name
    ,                        !- Design Object
    ,                        !- Availability Schedule Name
    ,                        !- Zone Name
    ,                        !- Surface Name or Radiant Surface Group Name
    autosize,                !- Hydronic Tubing Length {m}
    ,                        !- Rated Flow Rate {m3/s}
    ,                        !- Pump Flow Rate Schedule Name
    179352,                  !- Rated Pump Head {Pa}
    ,                        !- Rated Power Consumption {W}
    ,                        !- Heating Water Inlet Node Name
    ,                        !- Heating Water Outlet Node Name
    ,                        !- Heating High Water Temperature Schedule Name
    ,                        !- Heating Low Water Temperature Schedule Name
    ,                        !- Heating High Control Temperature Schedule Name
    ,                        !- Heating Low Control Temperature Schedule Name
    ,                        !- Cooling Water Inlet Node Name
    ,                        !- Cooling Water Outlet Node Name
    ,                        !- Cooling High Water Temperature Schedule Name
    ,                        !- Cooling Low Water Temperature Schedule Name
    ,                        !- Cooling High Control Temperature Schedule Name
    ,                        !- Cooling Low Control Temperature Schedule Name
    OnePerSurface,           !- Number of Circuits
    106.7;                   !- Circuit Length {m}


!-   ===========  ALL OBJECTS IN CLASS: ZONEHVAC:LOWTEMPERATURERADIANT:CONSTANTFLOW:DESIGN ===========

ZoneHVAC:LowTemperatureRadiant:ConstantFlow:Design,
    ,                        !- Name
    ConvectionOnly,          !- Fluid to Radiant Surface Heat Transfer Model
    0.013,                   !- Hydronic Tubing Inside Diameter {m}
    0.016,                   !- Hydronic Tubing Outside Diameter {m}
    0.35,                    !- Hydronic Tubing Conductivity {W/m-K}
    MeanAirTemperature,      !- Temperature Control Type
    0.8,                     !- Running Mean Outdoor Dry-Bulb Temperature Weighting Factor
    0.9,                     !- Motor Efficiency
    ,                        !- Fraction of Motor Inefficiencies to Fluid Stream
    SimpleOff,               !- Condensation Control Type
    1;                       !- Condensation Control Dewpoint Offset {C}


!-   ===========  ALL OBJECTS IN CLASS: ZONEHVAC:LOWTEMPERATURERADIANT:ELECTRIC ===========

ZoneHVAC:LowTemperatureRadiant:Electric,
    ,                        !- Name
    ,                        !- Availability Schedule Name
    ,                        !- Zone Name
    ,                        !- Surface Name or Radiant Surface Group Name
    HeatingDesignCapacity,   !- Heating Design Capacity Method
    autosize,                !- Heating Design Capacity {W}
    ,                        !- Heating Design Capacity Per Floor Area {W/m2}
    1,                       !- Fraction of Autosized Heating Design Capacity
    MeanAirTemperature,      !- Temperature Control Type
    HalfFlowPower,           !- Setpoint Control Type
    ,                        !- Heating Throttling Range {deltaC}
    ;                        !- Heating Setpoint Temperature Schedule Name


!-   ===========  ALL OBJECTS IN CLASS: ZONEHVAC:LOWTEMPERATURERADIANT:SURFACEGROUP ===========

ZoneHVAC:LowTemperatureRadiant:SurfaceGroup,
    ;                        !- Name


!-   ===========  ALL OBJECTS IN CLASS: ZONEHVAC:HIGHTEMPERATURERADIANT ===========

ZoneHVAC:HighTemperatureRadiant,
    ,                        !- Name
    ,                        !- Availability Schedule Name
    ,                        !- Zone Name
    HeatingDesignCapacity,   !- Heating Design Capacity Method
    autosize,                !- Heating Design Capacity {W}
    ,                        !- Heating Design Capacity Per Floor Area {W/m2}
    1,                       !- Fraction of Autosized Heating Design Capacity
    ,                        !- Fuel Type
    0.9,                     !- Combustion Efficiency
    0.7,                     !- Fraction of Input Converted to Radiant Energy
    ,                        !- Fraction of Input Converted to Latent Energy
    ,                        !- Fraction of Input that Is Lost
    OperativeTemperature,    !- Temperature Control Type
    2;                       !- Heating Throttling Range {deltaC}


!-   ===========  ALL OBJECTS IN CLASS: ZONEHVAC:VENTILATEDSLAB ===========

ZoneHVAC:VentilatedSlab,
    ,                        !- Name
    ,                        !- Availability Schedule Name
    ,                        !- Zone Name
    ,                        !- Surface Name or Radiant Surface Group Name
    ,                        !- Maximum Air Flow Rate {m3/s}
    ,                        !- Outdoor Air Control Type
    ,                        !- Minimum Outdoor Air Flow Rate {m3/s}
    ,                        !- Minimum Outdoor Air Schedule Name
    ,                        !- Maximum Outdoor Air Flow Rate {m3/s}
    ,                        !- Maximum Outdoor Air Fraction or Temperature Schedule Name
    SlabOnly,                !- System Configuration Type
    0.05,                    !- Hollow Core Inside Diameter {m}
    ,                        !- Hollow Core Length {m}
    ,                        !- Number of Cores
    OutdoorDryBulbTemperature,  !- Temperature Control Type
    ,                        !- Heating High Air Temperature Schedule Name
    ,                        !- Heating Low Air Temperature Schedule Name
    ,                        !- Heating High Control Temperature Schedule Name
    ,                        !- Heating Low Control Temperature Schedule Name
    ,                        !- Cooling High Air Temperature Schedule Name
    ,                        !- Cooling Low Air Temperature Schedule Name
    ,                        !- Cooling High Control Temperature Schedule Name
    ,                        !- Cooling Low Control Temperature Schedule Name
    ,                        !- Return Air Node Name
    ,                        !- Slab In Node Name
    ,                        !- Zone Supply Air Node Name
    ,                        !- Outdoor Air Node Name
    ,                        !- Relief Air Node Name
    ,                        !- Outdoor Air Mixer Outlet Node Name
    ,                        !- Fan Outlet Node Name
    ,                        !- Fan Name
    ;                        !- Coil Option Type


!-   ===========  ALL OBJECTS IN CLASS: ZONEHVAC:VENTILATEDSLAB:SLABGROUP ===========

ZoneHVAC:VentilatedSlab:SlabGroup,
    ;                        !- Name


!-   ===========  ALL OBJECTS IN CLASS: AIRTERMINAL:SINGLEDUCT:CONSTANTVOLUME:REHEAT ===========

AirTerminal:SingleDuct:ConstantVolume:Reheat,
    ,                        !- Name
    ,                        !- Availability Schedule Name
    ,                        !- Air Outlet Node Name
    ,                        !- Air Inlet Node Name
    ,                        !- Maximum Air Flow Rate {m3/s}
    ,                        !- Reheat Coil Object Type
    ,                        !- Reheat Coil Name
    ,                        !- Maximum Hot Water or Steam Flow Rate {m3/s}
    ,                        !- Minimum Hot Water or Steam Flow Rate {m3/s}
    0.001;                   !- Convergence Tolerance


!-   ===========  ALL OBJECTS IN CLASS: AIRTERMINAL:SINGLEDUCT:CONSTANTVOLUME:NOREHEAT ===========

AirTerminal:SingleDuct:ConstantVolume:NoReheat,
    ,                        !- Name
    ,                        !- Availability Schedule Name
    ,                        !- Air Inlet Node Name
    ,                        !- Air Outlet Node Name
    ,                        !- Maximum Air Flow Rate {m3/s}
    ,                        !- Design Specification Outdoor Air Object Name
    CurrentOccupancy;        !- Per Person Ventilation Rate Mode


!-   ===========  ALL OBJECTS IN CLASS: AIRTERMINAL:SINGLEDUCT:VAV:NOREHEAT ===========

AirTerminal:SingleDuct:VAV:NoReheat,
    ,                        !- Name
    ,                        !- Availability Schedule Name
    ,                        !- Air Outlet Node Name
    ,                        !- Air Inlet Node Name
    ,                        !- Maximum Air Flow Rate {m3/s}
    Constant,                !- Zone Minimum Air Flow Input Method
    autosize,                !- Constant Minimum Air Flow Fraction
    autosize;                !- Fixed Minimum Air Flow Rate {m3/s}


!-   ===========  ALL OBJECTS IN CLASS: AIRTERMINAL:SINGLEDUCT:VAV:REHEAT ===========

AirTerminal:SingleDuct:VAV:Reheat,
    ,                        !- Name
    ,                        !- Availability Schedule Name
    ,                        !- Damper Air Outlet Node Name
    ,                        !- Air Inlet Node Name
    ,                        !- Maximum Air Flow Rate {m3/s}
    Constant,                !- Zone Minimum Air Flow Input Method
    autosize,                !- Constant Minimum Air Flow Fraction
    autosize,                !- Fixed Minimum Air Flow Rate {m3/s}
    ,                        !- Minimum Air Flow Fraction Schedule Name
    ,                        !- Reheat Coil Object Type
    ,                        !- Reheat Coil Name
    ,                        !- Maximum Hot Water or Steam Flow Rate {m3/s}
    ,                        !- Minimum Hot Water or Steam Flow Rate {m3/s}
    ,                        !- Air Outlet Node Name
    0.001,                   !- Convergence Tolerance
    ReverseWithLimits,       !- Damper Heating Action
    autosize,                !- Maximum Flow per Zone Floor Area During Reheat {m3/s-m2}
    autosize;                !- Maximum Flow Fraction During Reheat


!-   ===========  ALL OBJECTS IN CLASS: AIRTERMINAL:SINGLEDUCT:VAV:REHEAT:VARIABLESPEEDFAN ===========

AirTerminal:SingleDuct:VAV:Reheat:VariableSpeedFan,
    ,                        !- Name
    ,                        !- Availability Schedule Name
    ,                        !- Maximum Cooling Air Flow Rate {m3/s}
    ,                        !- Maximum Heating Air Flow Rate {m3/s}
    ,                        !- Zone Minimum Air Flow Fraction
    ,                        !- Air Inlet Node Name
    ,                        !- Air Outlet Node Name
    ,                        !- Fan Object Type
    ,                        !- Fan Name
    ,                        !- Heating Coil Object Type
    ,                        !- Heating Coil Name
    ,                        !- Maximum Hot Water or Steam Flow Rate {m3/s}
    ,                        !- Minimum Hot Water or Steam Flow Rate {m3/s}
    0.001;                   !- Heating Convergence Tolerance


!-   ===========  ALL OBJECTS IN CLASS: AIRTERMINAL:SINGLEDUCT:VAV:HEATANDCOOL:NOREHEAT ===========

AirTerminal:SingleDuct:VAV:HeatAndCool:NoReheat,
    ,                        !- Name
    ,                        !- Availability Schedule Name
    ,                        !- Air Outlet Node Name
    ,                        !- Air Inlet Node Name
    ,                        !- Maximum Air Flow Rate {m3/s}
    ;                        !- Zone Minimum Air Flow Fraction


!-   ===========  ALL OBJECTS IN CLASS: AIRTERMINAL:SINGLEDUCT:VAV:HEATANDCOOL:REHEAT ===========

AirTerminal:SingleDuct:VAV:HeatAndCool:Reheat,
    ,                        !- Name
    ,                        !- Availability Schedule Name
    ,                        !- Damper Air Outlet Node Name
    ,                        !- Air Inlet Node Name
    ,                        !- Maximum Air Flow Rate {m3/s}
    ,                        !- Zone Minimum Air Flow Fraction
    ,                        !- Reheat Coil Object Type
    ,                        !- Reheat Coil Name
    ,                        !- Maximum Hot Water or Steam Flow Rate {m3/s}
    ,                        !- Minimum Hot Water or Steam Flow Rate {m3/s}
    ,                        !- Air Outlet Node Name
    0.001;                   !- Convergence Tolerance


!-   ===========  ALL OBJECTS IN CLASS: AIRTERMINAL:SINGLEDUCT:SERIESPIU:REHEAT ===========

AirTerminal:SingleDuct:SeriesPIU:Reheat,
    ,                        !- Name
    ,                        !- Availability Schedule Name
    ,                        !- Maximum Air Flow Rate {m3/s}
    ,                        !- Maximum Primary Air Flow Rate {m3/s}
    ,                        !- Minimum Primary Air Flow Fraction
    ,                        !- Supply Air Inlet Node Name
    ,                        !- Secondary Air Inlet Node Name
    ,                        !- Outlet Node Name
    ,                        !- Reheat Coil Air Inlet Node Name
    ,                        !- Zone Mixer Name
    ,                        !- Fan Name
    ,                        !- Reheat Coil Object Type
    ,                        !- Reheat Coil Name
    ,                        !- Maximum Hot Water or Steam Flow Rate {m3/s}
    ,                        !- Minimum Hot Water or Steam Flow Rate {m3/s}
    0.001;                   !- Convergence Tolerance


!-   ===========  ALL OBJECTS IN CLASS: AIRTERMINAL:SINGLEDUCT:PARALLELPIU:REHEAT ===========

AirTerminal:SingleDuct:ParallelPIU:Reheat,
    ,                        !- Name
    ,                        !- Availability Schedule Name
    ,                        !- Maximum Primary Air Flow Rate {m3/s}
    ,                        !- Maximum Secondary Air Flow Rate {m3/s}
    ,                        !- Minimum Primary Air Flow Fraction
    ,                        !- Fan On Flow Fraction
    ,                        !- Supply Air Inlet Node Name
    ,                        !- Secondary Air Inlet Node Name
    ,                        !- Outlet Node Name
    ,                        !- Reheat Coil Air Inlet Node Name
    ,                        !- Zone Mixer Name
    ,                        !- Fan Name
    ,                        !- Reheat Coil Object Type
    ,                        !- Reheat Coil Name
    ,                        !- Maximum Hot Water or Steam Flow Rate {m3/s}
    ,                        !- Minimum Hot Water or Steam Flow Rate {m3/s}
    0.001;                   !- Convergence Tolerance


!-   ===========  ALL OBJECTS IN CLASS: AIRTERMINAL:SINGLEDUCT:CONSTANTVOLUME:FOURPIPEINDUCTION ===========

AirTerminal:SingleDuct:ConstantVolume:FourPipeInduction,
    ,                        !- Name
    ,                        !- Availability Schedule Name
    ,                        !- Maximum Total Air Flow Rate {m3/s}
    2.5,                     !- Induction Ratio
    ,                        !- Supply Air Inlet Node Name
    ,                        !- Induced Air Inlet Node Name
    ,                        !- Air Outlet Node Name
    ,                        !- Heating Coil Object Type
    ,                        !- Heating Coil Name
    ,                        !- Maximum Hot Water Flow Rate {m3/s}
    ,                        !- Minimum Hot Water Flow Rate {m3/s}
    0.001,                   !- Heating Convergence Tolerance
    ,                        !- Cooling Coil Object Type
    ,                        !- Cooling Coil Name
    ,                        !- Maximum Cold Water Flow Rate {m3/s}
    ,                        !- Minimum Cold Water Flow Rate {m3/s}
    0.001,                   !- Cooling Convergence Tolerance
    ;                        !- Zone Mixer Name


!-   ===========  ALL OBJECTS IN CLASS: AIRTERMINAL:SINGLEDUCT:CONSTANTVOLUME:FOURPIPEBEAM ===========

AirTerminal:SingleDuct:ConstantVolume:FourPipeBeam,
    ,                        !- Name
    ,                        !- Primary Air Availability Schedule Name
    ,                        !- Cooling Availability Schedule Name
    ,                        !- Heating Availability Schedule Name
    ,                        !- Primary Air Inlet Node Name
    ,                        !- Primary Air Outlet Node Name
    ,                        !- Chilled Water Inlet Node Name
    ,                        !- Chilled Water Outlet Node Name
    ,                        !- Hot Water Inlet Node Name
    ,                        !- Hot Water Outlet Node Name
    autosize,                !- Design Primary Air Volume Flow Rate {m3/s}
    autosize,                !- Design Chilled Water Volume Flow Rate {m3/s}
    autosize,                !- Design Hot Water Volume Flow Rate {m3/s}
    autosize,                !- Zone Total Beam Length {m}
    0.035,                   !- Rated Primary Air Flow Rate per Beam Length {m3/s-m}
    600,                     !- Beam Rated Cooling Capacity per Beam Length {W/m}
    10,                      !- Beam Rated Cooling Room Air Chilled Water Temperature Difference {deltaC}
    0.00005,                 !- Beam Rated Chilled Water Volume Flow Rate per Beam Length {m3/s-m}
    ,                        !- Beam Cooling Capacity Temperature Difference Modification Factor Curve Name
    ,                        !- Beam Cooling Capacity Air Flow Modification Factor Curve Name
    ,                        !- Beam Cooling Capacity Chilled Water Flow Modification Factor Curve Name
    1500,                    !- Beam Rated Heating Capacity per Beam Length {W/m}
    27.8,                    !- Beam Rated Heating Room Air Hot Water Temperature Difference {deltaC}
    0.00005;                 !- Beam Rated Hot Water Volume Flow Rate per Beam Length {m3/s-m}


!-   ===========  ALL OBJECTS IN CLASS: AIRTERMINAL:SINGLEDUCT:CONSTANTVOLUME:COOLEDBEAM ===========

AirTerminal:SingleDuct:ConstantVolume:CooledBeam,
    ,                        !- Name
    ,                        !- Availability Schedule Name
    ,                        !- Cooled Beam Type
    ,                        !- Supply Air Inlet Node Name
    ,                        !- Supply Air Outlet Node Name
    ,                        !- Chilled Water Inlet Node Name
    ,                        !- Chilled Water Outlet Node Name
    autosize,                !- Supply Air Volumetric Flow Rate {m3/s}
    autosize,                !- Maximum Total Chilled Water Volumetric Flow Rate {m3/s}
    autosize,                !- Number of Beams
    autosize,                !- Beam Length {m}
    15,                      !- Design Inlet Water Temperature {C}
    17,                      !- Design Outlet Water Temperature {C}
    5.422,                   !- Coil Surface Area per Coil Length {m2/m}
    15.3,                    !- Model Parameter a
    ,                        !- Model Parameter n1
    0.84,                    !- Model Parameter n2
    0.12,                    !- Model Parameter n3
    0.171,                   !- Model Parameter a0 {m2/m}
    0.0057,                  !- Model Parameter K1
    0.4,                     !- Model Parameter n
    autocalculate,           !- Coefficient of Induction Kin
    0.0145;                  !- Leaving Pipe Inside Diameter {m}


!-   ===========  ALL OBJECTS IN CLASS: AIRTERMINAL:SINGLEDUCT:MIXER ===========

AirTerminal:SingleDuct:Mixer,
    ,                        !- Name
    ,                        !- ZoneHVAC Unit Object Type
    ,                        !- ZoneHVAC Unit Object Name
    ,                        !- Mixer Outlet Node Name
    ,                        !- Mixer Primary Air Inlet Node Name
    ,                        !- Mixer Secondary Air Inlet Node Name
    ,                        !- Mixer Connection Type
    ,                        !- Design Specification Outdoor Air Object Name
    CurrentOccupancy;        !- Per Person Ventilation Rate Mode


!-   ===========  ALL OBJECTS IN CLASS: AIRTERMINAL:DUALDUCT:CONSTANTVOLUME ===========

AirTerminal:DualDuct:ConstantVolume,
    ,                        !- Name
    ,                        !- Availability Schedule Name
    ,                        !- Air Outlet Node Name
    ,                        !- Hot Air Inlet Node Name
    ,                        !- Cold Air Inlet Node Name
    ;                        !- Maximum Air Flow Rate {m3/s}


!-   ===========  ALL OBJECTS IN CLASS: AIRTERMINAL:DUALDUCT:VAV ===========

AirTerminal:DualDuct:VAV,
    ,                        !- Name
    ,                        !- Availability Schedule Name
    ,                        !- Air Outlet Node Name
    ,                        !- Hot Air Inlet Node Name
    ,                        !- Cold Air Inlet Node Name
    ,                        !- Maximum Damper Air Flow Rate {m3/s}
    0.2;                     !- Zone Minimum Air Flow Fraction


!-   ===========  ALL OBJECTS IN CLASS: AIRTERMINAL:DUALDUCT:VAV:OUTDOORAIR ===========

AirTerminal:DualDuct:VAV:OutdoorAir,
    ,                        !- Name
    ,                        !- Availability Schedule Name
    ,                        !- Air Outlet Node Name
    ,                        !- Outdoor Air Inlet Node Name
    ,                        !- Recirculated Air Inlet Node Name
    ,                        !- Maximum Terminal Air Flow Rate {m3/s}
    ;                        !- Design Specification Outdoor Air Object Name


!-   ===========  ALL OBJECTS IN CLASS: ZONEHVAC:AIRDISTRIBUTIONUNIT ===========

ZoneHVAC:AirDistributionUnit,
    ,                        !- Name
    ,                        !- Air Distribution Unit Outlet Node Name
    ,                        !- Air Terminal Object Type
    ;                        !- Air Terminal Name


!-   ===========  ALL OBJECTS IN CLASS: ZONEHVAC:EXHAUSTCONTROL ===========

ZoneHVAC:ExhaustControl,
    ,                        !- Name
    ,                        !- Availability Schedule Name
    ,                        !- Zone Name
    ,                        !- Inlet Node Name
    ,                        !- Outlet Node Name
    autosize,                !- Design Exhaust Flow Rate {m3/s}
    Scheduled;               !- Flow Control Type


!-   ===========  ALL OBJECTS IN CLASS: ZONEHVAC:EQUIPMENTLIST ===========

ZoneHVAC:EquipmentList,
    ,                        !- Name
    SequentialLoad,          !- Load Distribution Scheme
    ,                        !- Zone Equipment 1 Object Type
    ,                        !- Zone Equipment 1 Name
    ,                        !- Zone Equipment 1 Cooling Sequence
    ,                        !- Zone Equipment 1 Heating or No-Load Sequence
    ,                        !- Zone Equipment 1 Sequential Cooling Fraction Schedule Name
    ;                        !- Zone Equipment 1 Sequential Heating Fraction Schedule Name


!-   ===========  ALL OBJECTS IN CLASS: ZONEHVAC:EQUIPMENTCONNECTIONS ===========

ZoneHVAC:EquipmentConnections,
    ;                        !- Zone Name


!-   ===========  ALL OBJECTS IN CLASS: FAN:SYSTEMMODEL ===========

Fan:SystemModel,
    ,                        !- Name
    ,                        !- Availability Schedule Name
    ,                        !- Air Inlet Node Name
    ,                        !- Air Outlet Node Name
    ,                        !- Design Maximum Air Flow Rate {m3/s}
    Discrete,                !- Speed Control Method
    0.2,                     !- Electric Power Minimum Flow Rate Fraction
    ,                        !- Design Pressure Rise {Pa}
    0.9,                     !- Motor Efficiency
    1,                       !- Motor In Air Stream Fraction
    autosize,                !- Design Electric Power Consumption {W}
    PowerPerFlowPerPressure, !- Design Power Sizing Method
    ,                        !- Electric Power Per Unit Flow Rate {W/(m3/s)}
    1.66667,                 !- Electric Power Per Unit Flow Rate Per Unit Pressure {W/((m3/s)-Pa)}
    0.7,                     !- Fan Total Efficiency
    ,                        !- Electric Power Function of Flow Fraction Curve Name
    ,                        !- Night Ventilation Mode Pressure Rise {Pa}
    ,                        !- Night Ventilation Mode Flow Fraction
    ,                        !- Motor Loss Zone Name
    ,                        !- Motor Loss Radiative Fraction
    General,                 !- End-Use Subcategory
    1;                       !- Number of Speeds


!-   ===========  ALL OBJECTS IN CLASS: FAN:CONSTANTVOLUME ===========

Fan:ConstantVolume,
    ,                        !- Name
    ,                        !- Availability Schedule Name
    0.7,                     !- Fan Total Efficiency
    ,                        !- Pressure Rise {Pa}
    ,                        !- Maximum Flow Rate {m3/s}
    0.9,                     !- Motor Efficiency
    1,                       !- Motor In Airstream Fraction
    ,                        !- Air Inlet Node Name
    ,                        !- Air Outlet Node Name
    General;                 !- End-Use Subcategory


!-   ===========  ALL OBJECTS IN CLASS: FAN:VARIABLEVOLUME ===========

Fan:VariableVolume,
    ,                        !- Name
    ,                        !- Availability Schedule Name
    0.7,                     !- Fan Total Efficiency
    ,                        !- Pressure Rise {Pa}
    ,                        !- Maximum Flow Rate {m3/s}
    Fraction,                !- Fan Power Minimum Flow Rate Input Method
    0.25,                    !- Fan Power Minimum Flow Fraction
    ,                        !- Fan Power Minimum Air Flow Rate {m3/s}
    0.9,                     !- Motor Efficiency
    1,                       !- Motor In Airstream Fraction
    ,                        !- Fan Power Coefficient 1
    ,                        !- Fan Power Coefficient 2
    ,                        !- Fan Power Coefficient 3
    ,                        !- Fan Power Coefficient 4
    ,                        !- Fan Power Coefficient 5
    ,                        !- Air Inlet Node Name
    ,                        !- Air Outlet Node Name
    General;                 !- End-Use Subcategory


!-   ===========  ALL OBJECTS IN CLASS: FAN:ONOFF ===========

Fan:OnOff,
    ,                        !- Name
    ,                        !- Availability Schedule Name
    0.6,                     !- Fan Total Efficiency
    ,                        !- Pressure Rise {Pa}
    ,                        !- Maximum Flow Rate {m3/s}
    0.8,                     !- Motor Efficiency
    1,                       !- Motor In Airstream Fraction
    ,                        !- Air Inlet Node Name
    ,                        !- Air Outlet Node Name
    ,                        !- Fan Power Ratio Function of Speed Ratio Curve Name
    ,                        !- Fan Efficiency Ratio Function of Speed Ratio Curve Name
    General;                 !- End-Use Subcategory


!-   ===========  ALL OBJECTS IN CLASS: FAN:ZONEEXHAUST ===========

Fan:ZoneExhaust,
    ,                        !- Name
    ,                        !- Availability Schedule Name
    0.6,                     !- Fan Total Efficiency
    ,                        !- Pressure Rise {Pa}
    ,                        !- Maximum Flow Rate {m3/s}
    ,                        !- Air Inlet Node Name
    ,                        !- Air Outlet Node Name
    General,                 !- End-Use Subcategory
    ,                        !- Flow Fraction Schedule Name
    Coupled;                 !- System Availability Manager Coupling Mode


!-   ===========  ALL OBJECTS IN CLASS: FANPERFORMANCE:NIGHTVENTILATION ===========

FanPerformance:NightVentilation,
    ,                        !- Fan Name
    ,                        !- Fan Total Efficiency
    ,                        !- Pressure Rise {Pa}
    ,                        !- Maximum Flow Rate {m3/s}
    ,                        !- Motor Efficiency
    1;                       !- Motor in Airstream Fraction


!-   ===========  ALL OBJECTS IN CLASS: FAN:COMPONENTMODEL ===========

Fan:ComponentModel,
    ,                        !- Name
    ,                        !- Air Inlet Node Name
    ,                        !- Air Outlet Node Name
    ,                        !- Availability Schedule Name
    ,                        !- Maximum Flow Rate {m3/s}
    ,                        !- Minimum Flow Rate {m3/s}
    1,                       !- Fan Sizing Factor
    ,                        !- Fan Wheel Diameter {m}
    ,                        !- Fan Outlet Area {m2}
    ,                        !- Maximum Fan Static Efficiency
    ,                        !- Euler Number at Maximum Fan Static Efficiency
    ,                        !- Maximum Dimensionless Fan Airflow
    1,                       !- Motor Fan Pulley Ratio
    ,                        !- Belt Maximum Torque {N-m}
    1,                       !- Belt Sizing Factor
    0.167,                   !- Belt Fractional Torque Transition
    ,                        !- Motor Maximum Speed {rev/min}
    ,                        !- Maximum Motor Output Power {W}
    1,                       !- Motor Sizing Factor
    1,                       !- Motor In Airstream Fraction
    ,                        !- VFD Efficiency Type
    ,                        !- Maximum VFD Output Power {W}
    1,                       !- VFD Sizing Factor
    ,                        !- Fan Pressure Rise Curve Name
    ,                        !- Duct Static Pressure Reset Curve Name
    ,                        !- Normalized Fan Static Efficiency Curve Name-Non-Stall Region
    ,                        !- Normalized Fan Static Efficiency Curve Name-Stall Region
    ,                        !- Normalized Dimensionless Airflow Curve Name-Non-Stall Region
    ,                        !- Normalized Dimensionless Airflow Curve Name-Stall Region
    ,                        !- Maximum Belt Efficiency Curve Name
    ,                        !- Normalized Belt Efficiency Curve Name - Region 1
    ,                        !- Normalized Belt Efficiency Curve Name - Region 2
    ,                        !- Normalized Belt Efficiency Curve Name - Region 3
    ,                        !- Maximum Motor Efficiency Curve Name
    ,                        !- Normalized Motor Efficiency Curve Name
    ,                        !- VFD Efficiency Curve Name
    General;                 !- End-Use Subcategory


!-   ===========  ALL OBJECTS IN CLASS: COIL:COOLING:WATER ===========

Coil:Cooling:Water,
    ,                        !- Name
    ,                        !- Availability Schedule Name
    autosize,                !- Design Water Flow Rate {m3/s}
    autosize,                !- Design Air Flow Rate {m3/s}
    autosize,                !- Design Inlet Water Temperature {C}
    autosize,                !- Design Inlet Air Temperature {C}
    autosize,                !- Design Outlet Air Temperature {C}
    autosize,                !- Design Inlet Air Humidity Ratio {kgWater/kgDryAir}
    autosize,                !- Design Outlet Air Humidity Ratio {kgWater/kgDryAir}
    ,                        !- Water Inlet Node Name
    ,                        !- Water Outlet Node Name
    ,                        !- Air Inlet Node Name
    ,                        !- Air Outlet Node Name
    SimpleAnalysis,          !- Type of Analysis
    CounterFlow;             !- Heat Exchanger Configuration


!-   ===========  ALL OBJECTS IN CLASS: COIL:COOLING:WATER:DETAILEDGEOMETRY ===========

Coil:Cooling:Water:DetailedGeometry,
    ,                        !- Name
    ,                        !- Availability Schedule Name
    autosize,                !- Maximum Water Flow Rate {m3/s}
    autosize,                !- Tube Outside Surface Area {m2}
    autosize,                !- Total Tube Inside Area {m2}
    autosize,                !- Fin Surface Area {m2}
    autosize,                !- Minimum Airflow Area {m2}
    autosize,                !- Coil Depth {m}
    autosize,                !- Fin Diameter {m}
    0.0015,                  !- Fin Thickness {m}
    0.01445,                 !- Tube Inside Diameter {m}
    0.0159,                  !- Tube Outside Diameter {m}
    386,                     !- Tube Thermal Conductivity {W/m-K}
    204,                     !- Fin Thermal Conductivity {W/m-K}
    0.0018,                  !- Fin Spacing {m}
    0.026,                   !- Tube Depth Spacing {m}
    4,                       !- Number of Tube Rows
    autosize,                !- Number of Tubes per Row
    ,                        !- Water Inlet Node Name
    ,                        !- Water Outlet Node Name
    ,                        !- Air Inlet Node Name
    ,                        !- Air Outlet Node Name
    ,                        !- Condensate Collection Water Storage Tank Name
    ,                        !- Design Water Temperature Difference {deltaC}
    autosize;                !- Design Inlet Water Temperature {C}


!-   ===========  ALL OBJECTS IN CLASS: COILSYSTEM:COOLING:WATER ===========

CoilSystem:Cooling:Water,
    ,                        !- Name
    ,                        !- Air Inlet Node Name
    ,                        !- Air Outlet Node Name
    ,                        !- Availability Schedule Name
    ,                        !- Cooling Coil Object Type
    ,                        !- Cooling Coil Name
    None,                    !- Dehumidification Control Type
    Yes,                     !- Run on Sensible Load
    No,                      !- Run on Latent Load
    ,                        !- Minimum Air To Water Temperature Offset {deltaC}
    Yes;                     !- Economizer Lockout


!-   ===========  ALL OBJECTS IN CLASS: COIL:COOLING:DX ===========

Coil:Cooling:DX,
    ,                        !- Name
    ,                        !- Evaporator Inlet Node Name
    ,                        !- Evaporator Outlet Node Name
    ,                        !- Availability Schedule Name
    ,                        !- Condenser Zone Name
    ,                        !- Condenser Inlet Node Name
    ,                        !- Condenser Outlet Node Name
    ;                        !- Performance Object Name


!-   ===========  ALL OBJECTS IN CLASS: COIL:COOLING:DX:CURVEFIT:PERFORMANCE ===========

Coil:Cooling:DX:CurveFit:Performance,
    ,                        !- Name
    ,                        !- Crankcase Heater Capacity {W}
    -25,                     !- Minimum Outdoor Dry-Bulb Temperature for Compressor Operation {C}
    10,                      !- Maximum Outdoor Dry-Bulb Temperature for Crankcase Heater Operation {C}
    ,                        !- Unit Internal Static Air Pressure {Pa}
    Discrete,                !- Capacity Control Method
    ,                        !- Evaporative Condenser Basin Heater Capacity {W/K}
    2,                       !- Evaporative Condenser Basin Heater Setpoint Temperature {C}
    ,                        !- Evaporative Condenser Basin Heater Operating Schedule Name
    Electricity,             !- Compressor Fuel Type
    ;                        !- Base Operating Mode


!-   ===========  ALL OBJECTS IN CLASS: COIL:COOLING:DX:CURVEFIT:OPERATINGMODE ===========

Coil:Cooling:DX:CurveFit:OperatingMode,
    ,                        !- Name
    autosize,                !- Rated Gross Total Cooling Capacity {W}
    ,                        !- Rated Evaporator Air Flow Rate {m3/s}
    ,                        !- Rated Condenser Air Flow Rate {m3/s}
    ,                        !- Maximum Cycling Rate {cycles/hr}
    ,                        !- Ratio of Initial Moisture Evaporation Rate and Steady State Latent Capacity {dimensionless}
    ,                        !- Latent Capacity Time Constant {s}
    ,                        !- Nominal Time for Condensate Removal to Begin {s}
    No,                      !- Apply Latent Degradation to Speeds Greater than 1
    AirCooled,               !- Condenser Type
    ,                        !- Nominal Evaporative Condenser Pump Power {W}
    ,                        !- Nominal Speed Number
    ;                        !- Speed 1 Name


!-   ===========  ALL OBJECTS IN CLASS: COIL:COOLING:DX:CURVEFIT:SPEED ===========

Coil:Cooling:DX:CurveFit:Speed,
    ,                        !- Name
    ,                        !- Gross Total Cooling Capacity Fraction
    ,                        !- Evaporator Air Flow Rate Fraction
    ,                        !- Condenser Air Flow Rate Fraction
    autosize,                !- Gross Sensible Heat Ratio
    3,                       !- Gross Cooling COP {W/W}
    1,                       !- Active Fraction of Coil Face Area
    773.3,                   !- Rated Evaporator Fan Power Per Volume Flow Rate {W/(m3/s)}
    1,                       !- Evaporative Condenser Pump Power Fraction
    0.9,                     !- Evaporative Condenser Effectiveness {dimensionless}
    ,                        !- Total Cooling Capacity Modifier Function of Temperature Curve Name
    ,                        !- Total Cooling Capacity Modifier Function of Air Flow Fraction Curve Name
    ,                        !- Energy Input Ratio Modifier Function of Temperature Curve Name
    ,                        !- Energy Input Ratio Modifier Function of Air Flow Fraction Curve Name
    ,                        !- Part Load Fraction Correlation Curve Name
    0.2;                     !- Rated Waste Heat Fraction of Power Input {dimensionless}


!-   ===========  ALL OBJECTS IN CLASS: COIL:COOLING:DX:SINGLESPEED ===========

Coil:Cooling:DX:SingleSpeed,
    ,                        !- Name
    ,                        !- Availability Schedule Name
    ,                        !- Gross Rated Total Cooling Capacity {W}
    ,                        !- Gross Rated Sensible Heat Ratio
    3,                       !- Gross Rated Cooling COP {W/W}
    ,                        !- Rated Air Flow Rate {m3/s}
    773.3,                   !- Rated Evaporator Fan Power Per Volume Flow Rate {W/(m3/s)}
    ,                        !- Air Inlet Node Name
    ,                        !- Air Outlet Node Name
    ,                        !- Total Cooling Capacity Function of Temperature Curve Name
    ,                        !- Total Cooling Capacity Function of Flow Fraction Curve Name
    ,                        !- Energy Input Ratio Function of Temperature Curve Name
    ,                        !- Energy Input Ratio Function of Flow Fraction Curve Name
    ,                        !- Part Load Fraction Correlation Curve Name
    -25,                     !- Minimum Outdoor Dry-Bulb Temperature for Compressor Operation {C}
    ,                        !- Nominal Time for Condensate Removal to Begin {s}
    ,                        !- Ratio of Initial Moisture Evaporation Rate and Steady State Latent Capacity {dimensionless}
    ,                        !- Maximum Cycling Rate {cycles/hr}
    ,                        !- Latent Capacity Time Constant {s}
    ,                        !- Condenser Air Inlet Node Name
    AirCooled,               !- Condenser Type
    0.9,                     !- Evaporative Condenser Effectiveness {dimensionless}
    ,                        !- Evaporative Condenser Air Flow Rate {m3/s}
    ,                        !- Evaporative Condenser Pump Rated Power Consumption {W}
    ,                        !- Crankcase Heater Capacity {W}
    10,                      !- Maximum Outdoor Dry-Bulb Temperature for Crankcase Heater Operation {C}
    ,                        !- Supply Water Storage Tank Name
    ,                        !- Condensate Collection Water Storage Tank Name
    ,                        !- Basin Heater Capacity {W/K}
    2,                       !- Basin Heater Setpoint Temperature {C}
    ,                        !- Basin Heater Operating Schedule Name
    ,                        !- Sensible Heat Ratio Function of Temperature Curve Name
    ,                        !- Sensible Heat Ratio Function of Flow Fraction Curve Name
    No;                      !- Report ASHRAE Standard 127 Performance Ratings


!-   ===========  ALL OBJECTS IN CLASS: COIL:COOLING:DX:TWOSPEED ===========

Coil:Cooling:DX:TwoSpeed,
    ,                        !- Name
    ,                        !- Availability Schedule Name
    ,                        !- High Speed Gross Rated Total Cooling Capacity {W}
    ,                        !- High Speed Rated Sensible Heat Ratio
    3,                       !- High Speed Gross Rated Cooling COP {W/W}
    ,                        !- High Speed Rated Air Flow Rate {m3/s}
    ,                        !- Unit Internal Static Air Pressure {Pa}
    ,                        !- Air Inlet Node Name
    ,                        !- Air Outlet Node Name
    ,                        !- Total Cooling Capacity Function of Temperature Curve Name
    ,                        !- Total Cooling Capacity Function of Flow Fraction Curve Name
    ,                        !- Energy Input Ratio Function of Temperature Curve Name
    ,                        !- Energy Input Ratio Function of Flow Fraction Curve Name
    ,                        !- Part Load Fraction Correlation Curve Name
    ,                        !- Low Speed Gross Rated Total Cooling Capacity {W}
    ,                        !- Low Speed Gross Rated Sensible Heat Ratio
    3,                       !- Low Speed Gross Rated Cooling COP {W/W}
    ,                        !- Low Speed Rated Air Flow Rate {m3/s}
    ,                        !- Low Speed Total Cooling Capacity Function of Temperature Curve Name
    ,                        !- Low Speed Energy Input Ratio Function of Temperature Curve Name
    ,                        !- Condenser Air Inlet Node Name
    AirCooled,               !- Condenser Type
    -25,                     !- Minimum Outdoor Dry-Bulb Temperature for Compressor Operation {C}
    0.9,                     !- High Speed Evaporative Condenser Effectiveness {dimensionless}
    ,                        !- High Speed Evaporative Condenser Air Flow Rate {m3/s}
    ,                        !- High Speed Evaporative Condenser Pump Rated Power Consumption {W}
    0.9,                     !- Low Speed Evaporative Condenser Effectiveness {dimensionless}
    ,                        !- Low Speed Evaporative Condenser Air Flow Rate {m3/s}
    ,                        !- Low Speed Evaporative Condenser Pump Rated Power Consumption {W}
    ,                        !- Supply Water Storage Tank Name
    ,                        !- Condensate Collection Water Storage Tank Name
    ,                        !- Basin Heater Capacity {W/K}
    2;                       !- Basin Heater Setpoint Temperature {C}


!-   ===========  ALL OBJECTS IN CLASS: COIL:COOLING:DX:MULTISPEED ===========

Coil:Cooling:DX:MultiSpeed,
    ,                        !- Name
    ,                        !- Availability Schedule Name
    ,                        !- Air Inlet Node Name
    ,                        !- Air Outlet Node Name
    ,                        !- Condenser Air Inlet Node Name
    AirCooled,               !- Condenser Type
    -25,                     !- Minimum Outdoor Dry-Bulb Temperature for Compressor Operation {C}
    ,                        !- Supply Water Storage Tank Name
    ,                        !- Condensate Collection Water Storage Tank Name
    No,                      !- Apply Part Load Fraction to Speeds Greater than 1
    No,                      !- Apply Latent Degradation to Speeds Greater than 1
    ,                        !- Crankcase Heater Capacity {W}
    10,                      !- Maximum Outdoor Dry-Bulb Temperature for Crankcase Heater Operation {C}
    ,                        !- Basin Heater Capacity {W/K}
    2,                       !- Basin Heater Setpoint Temperature {C}
    ,                        !- Basin Heater Operating Schedule Name
    ,                        !- Fuel Type
    ,                        !- Number of Speeds
    ,                        !- Speed 1 Gross Rated Total Cooling Capacity {W}
    ,                        !- Speed 1 Gross Rated Sensible Heat Ratio
    3,                       !- Speed 1 Gross Rated Cooling COP {W/W}
    ,                        !- Speed 1 Rated Air Flow Rate {m3/s}
    773.3,                   !- Speed 1 Rated Evaporator Fan Power Per Volume Flow Rate {W/(m3/s)}
    ,                        !- Speed 1 Total Cooling Capacity Function of Temperature Curve Name
    ,                        !- Speed 1 Total Cooling Capacity Function of Flow Fraction Curve Name
    ,                        !- Speed 1 Energy Input Ratio Function of Temperature Curve Name
    ,                        !- Speed 1 Energy Input Ratio Function of Flow Fraction Curve Name
    ,                        !- Speed 1 Part Load Fraction Correlation Curve Name
    ,                        !- Speed 1 Nominal Time for Condensate Removal to Begin {s}
    ,                        !- Speed 1 Ratio of Initial Moisture Evaporation Rate and Steady State Latent Capacity {dimensionless}
    ,                        !- Speed 1 Maximum Cycling Rate {cycles/hr}
    ,                        !- Speed 1 Latent Capacity Time Constant {s}
    0.2,                     !- Speed 1 Rated Waste Heat Fraction of Power Input {dimensionless}
    ,                        !- Speed 1 Waste Heat Function of Temperature Curve Name
    0.9,                     !- Speed 1 Evaporative Condenser Effectiveness {dimensionless}
    ,                        !- Speed 1 Evaporative Condenser Air Flow Rate {m3/s}
    ,                        !- Speed 1 Rated Evaporative Condenser Pump Power Consumption {W}
    ,                        !- Speed 2 Gross Rated Total Cooling Capacity {W}
    ,                        !- Speed 2 Gross Rated Sensible Heat Ratio
    3,                       !- Speed 2 Gross Rated Cooling COP {W/W}
    ,                        !- Speed 2 Rated Air Flow Rate {m3/s}
    773.3,                   !- Speed 2 Rated Evaporator Fan Power Per Volume Flow Rate {W/(m3/s)}
    ,                        !- Speed 2 Total Cooling Capacity Function of Temperature Curve Name
    ,                        !- Speed 2 Total Cooling Capacity Function of Flow Fraction Curve Name
    ,                        !- Speed 2 Energy Input Ratio Function of Temperature Curve Name
    ,                        !- Speed 2 Energy Input Ratio Function of Flow Fraction Curve Name
    ,                        !- Speed 2 Part Load Fraction Correlation Curve Name
    ,                        !- Speed 2 Nominal Time for Condensate Removal to Begin {s}
    ,                        !- Speed 2 Ratio of Initial Moisture Evaporation Rate and steady state Latent Capacity {dimensionless}
    ,                        !- Speed 2 Maximum Cycling Rate {cycles/hr}
    ,                        !- Speed 2 Latent Capacity Time Constant {s}
    0.2,                     !- Speed 2 Rated Waste Heat Fraction of Power Input {dimensionless}
    ,                        !- Speed 2 Waste Heat Function of Temperature Curve Name
    0.9,                     !- Speed 2 Evaporative Condenser Effectiveness {dimensionless}
    ,                        !- Speed 2 Evaporative Condenser Air Flow Rate {m3/s}
    ,                        !- Speed 2 Rated Evaporative Condenser Pump Power Consumption {W}
    ,                        !- Speed 3 Gross Rated Total Cooling Capacity {W}
    ,                        !- Speed 3 Gross Rated Sensible Heat Ratio
    3,                       !- Speed 3 Gross Rated Cooling COP {W/W}
    ,                        !- Speed 3 Rated Air Flow Rate {m3/s}
    773.3,                   !- Speed 3 Rated Evaporator Fan Power Per Volume Flow Rate {W/(m3/s)}
    ,                        !- Speed 3 Total Cooling Capacity Function of Temperature Curve Name
    ,                        !- Speed 3 Total Cooling Capacity Function of Flow Fraction Curve Name
    ,                        !- Speed 3 Energy Input Ratio Function of Temperature Curve Name
    ,                        !- Speed 3 Energy Input Ratio Function of Flow Fraction Curve Name
    ,                        !- Speed 3 Part Load Fraction Correlation Curve Name
    ,                        !- Speed 3 Nominal Time for Condensate Removal to Begin {s}
    ,                        !- Speed 3 Ratio of Initial Moisture Evaporation Rate and steady state Latent Capacity {dimensionless}
    ,                        !- Speed 3 Maximum Cycling Rate {cycles/hr}
    ,                        !- Speed 3 Latent Capacity Time Constant {s}
    0.2,                     !- Speed 3 Rated Waste Heat Fraction of Power Input {dimensionless}
    ,                        !- Speed 3 Waste Heat Function of Temperature Curve Name
    0.9,                     !- Speed 3 Evaporative Condenser Effectiveness {dimensionless}
    ,                        !- Speed 3 Evaporative Condenser Air Flow Rate {m3/s}
    ,                        !- Speed 3 Rated Evaporative Condenser Pump Power Consumption {W}
    ,                        !- Speed 4 Gross Rated Total Cooling Capacity {W}
    ,                        !- Speed 4 Gross Rated Sensible Heat Ratio
    3,                       !- Speed 4 Gross Rated Cooling COP {W/W}
    ,                        !- Speed 4 Rated Air Flow Rate {m3/s}
    773.3,                   !- Speed 4 Rated Evaporator Fan Power Per Volume Flow Rate {W/(m3/s)}
    ,                        !- Speed 4 Total Cooling Capacity Function of Temperature Curve Name
    ,                        !- Speed 4 Total Cooling Capacity Function of Flow Fraction Curve Name
    ,                        !- Speed 4 Energy Input Ratio Function of Temperature Curve Name
    ,                        !- Speed 4 Energy Input Ratio Function of Flow Fraction Curve Name
    ,                        !- Speed 4 Part Load Fraction Correlation Curve Name
    ,                        !- Speed 4 Nominal Time for Condensate Removal to Begin {s}
    ,                        !- Speed 4 Ratio of Initial Moisture Evaporation Rate and steady state Latent Capacity {dimensionless}
    ,                        !- Speed 4 Maximum Cycling Rate {cycles/hr}
    ,                        !- Speed 4 Latent Capacity Time Constant {s}
    0.2,                     !- Speed 4 Rated Waste Heat Fraction of Power Input {dimensionless}
    ,                        !- Speed 4 Waste Heat Function of Temperature Curve Name
    0.9;                     !- Speed 4 Evaporative Condenser Effectiveness {dimensionless}


!-   ===========  ALL OBJECTS IN CLASS: COIL:COOLING:DX:VARIABLESPEED ===========

Coil:Cooling:DX:VariableSpeed,
    ,                        !- Name
    ,                        !- Indoor Air Inlet Node Name
    ,                        !- Indoor Air Outlet Node Name
    2,                       !- Number of Speeds {dimensionless}
    2,                       !- Nominal Speed Level {dimensionless}
    autosize,                !- Gross Rated Total Cooling Capacity At Selected Nominal Speed Level {W}
    autosize,                !- Rated Air Flow Rate At Selected Nominal Speed Level {m3/s}
    ,                        !- Nominal Time for Condensate to Begin Leaving the Coil {s}
    ,                        !- Initial Moisture Evaporation Rate Divided by Steady-State AC Latent Capacity {dimensionless}
    ,                        !- Energy Part Load Fraction Curve Name
    ,                        !- Condenser Air Inlet Node Name
    AirCooled,               !- Condenser Type
    ,                        !- Evaporative Condenser Pump Rated Power Consumption {W}
    ,                        !- Crankcase Heater Capacity {W}
    10,                      !- Maximum Outdoor Dry-Bulb Temperature for Crankcase Heater Operation {C}
    -25,                     !- Minimum Outdoor Dry-Bulb Temperature for Compressor Operation {C}
    ,                        !- Supply Water Storage Tank Name
    ,                        !- Condensate Collection Water Storage Tank Name
    ,                        !- Basin Heater Capacity {W/K}
    2,                       !- Basin Heater Setpoint Temperature {C}
    ,                        !- Basin Heater Operating Schedule Name
    ,                        !- Speed 1 Reference Unit Gross Rated Total Cooling Capacity {W}
    ,                        !- Speed 1 Reference Unit Gross Rated Sensible Heat Ratio {dimensionless}
    ,                        !- Speed 1 Reference Unit Gross Rated Cooling COP {W/W}
    ,                        !- Speed 1 Reference Unit Rated Air Flow Rate {m3/s}
    ,                        !- Speed 1 Reference Unit Rated Condenser Air Flow Rate {m3/s}
    ,                        !- Speed 1 Reference Unit Rated Pad Effectiveness of Evap Precooling {dimensionless}
    ,                        !- Speed 1 Total Cooling Capacity Function of Temperature Curve Name
    ,                        !- Speed 1 Total Cooling Capacity Function of Air Flow Fraction Curve Name
    ,                        !- Speed 1 Energy Input Ratio Function of Temperature Curve Name
    ;                        !- Speed 1 Energy Input Ratio Function of Air Flow Fraction Curve Name


!-   ===========  ALL OBJECTS IN CLASS: COIL:COOLING:DX:TWOSTAGEWITHHUMIDITYCONTROLMODE ===========

Coil:Cooling:DX:TwoStageWithHumidityControlMode,
    ,                        !- Name
    ,                        !- Availability Schedule Name
    ,                        !- Air Inlet Node Name
    ,                        !- Air Outlet Node Name
    ,                        !- Crankcase Heater Capacity {W}
    10,                      !- Maximum Outdoor Dry-Bulb Temperature for Crankcase Heater Operation {C}
    1,                       !- Number of Capacity Stages
    ,                        !- Number of Enhanced Dehumidification Modes
    ,                        !- Normal Mode Stage 1 Coil Performance Object Type
    ,                        !- Normal Mode Stage 1 Coil Performance Name
    ,                        !- Normal Mode Stage 1+2 Coil Performance Object Type
    ,                        !- Normal Mode Stage 1+2 Coil Performance Name
    ,                        !- Dehumidification Mode 1 Stage 1 Coil Performance Object Type
    ,                        !- Dehumidification Mode 1 Stage 1 Coil Performance Name
    ,                        !- Dehumidification Mode 1 Stage 1+2 Coil Performance Object Type
    ,                        !- Dehumidification Mode 1 Stage 1+2 Coil Performance Name
    ,                        !- Supply Water Storage Tank Name
    ,                        !- Condensate Collection Water Storage Tank Name
    -25,                     !- Minimum Outdoor Dry-Bulb Temperature for Compressor Operation {C}
    ,                        !- Basin Heater Capacity {W/K}
    2;                       !- Basin Heater Setpoint Temperature {C}


!-   ===========  ALL OBJECTS IN CLASS: COILPERFORMANCE:DX:COOLING ===========

CoilPerformance:DX:Cooling,
    ,                        !- Name
    ,                        !- Gross Rated Total Cooling Capacity {W}
    ,                        !- Gross Rated Sensible Heat Ratio
    3,                       !- Gross Rated Cooling COP {W/W}
    ,                        !- Rated Air Flow Rate {m3/s}
    ,                        !- Fraction of Air Flow Bypassed Around Coil
    ,                        !- Total Cooling Capacity Function of Temperature Curve Name
    ,                        !- Total Cooling Capacity Function of Flow Fraction Curve Name
    ,                        !- Energy Input Ratio Function of Temperature Curve Name
    ,                        !- Energy Input Ratio Function of Flow Fraction Curve Name
    ,                        !- Part Load Fraction Correlation Curve Name
    ,                        !- Nominal Time for Condensate Removal to Begin {s}
    ,                        !- Ratio of Initial Moisture Evaporation Rate and Steady State Latent Capacity {dimensionless}
    ,                        !- Maximum Cycling Rate {cycles/hr}
    ,                        !- Latent Capacity Time Constant {s}
    ,                        !- Condenser Air Inlet Node Name
    AirCooled,               !- Condenser Type
    0.9;                     !- Evaporative Condenser Effectiveness {dimensionless}


!-   ===========  ALL OBJECTS IN CLASS: COIL:COOLING:DX:VARIABLEREFRIGERANTFLOW ===========

Coil:Cooling:DX:VariableRefrigerantFlow,
    ,                        !- Name
    ,                        !- Availability Schedule Name
    ,                        !- Gross Rated Total Cooling Capacity {W}
    ,                        !- Gross Rated Sensible Heat Ratio
    ,                        !- Rated Air Flow Rate {m3/s}
    ,                        !- Cooling Capacity Ratio Modifier Function of Temperature Curve Name
    ,                        !- Cooling Capacity Modifier Curve Function of Flow Fraction Name
    ,                        !- Coil Air Inlet Node
    ;                        !- Coil Air Outlet Node


!-   ===========  ALL OBJECTS IN CLASS: COIL:HEATING:DX:VARIABLEREFRIGERANTFLOW ===========

Coil:Heating:DX:VariableRefrigerantFlow,
    ,                        !- Name
    ,                        !- Availability Schedule
    ,                        !- Gross Rated Heating Capacity {W}
    ,                        !- Rated Air Flow Rate {m3/s}
    ;                        !- Coil Air Inlet Node


!-   ===========  ALL OBJECTS IN CLASS: COIL:COOLING:DX:VARIABLEREFRIGERANTFLOW:FLUIDTEMPERATURECONTROL ===========

Coil:Cooling:DX:VariableRefrigerantFlow:FluidTemperatureControl,
    ,                        !- Name
    ,                        !- Availability Schedule Name
    ,                        !- Coil Air Inlet Node
    ,                        !- Coil Air Outlet Node
    ,                        !- Rated Total Cooling Capacity {W}
    ,                        !- Rated Sensible Heat Ratio
    5;                       !- Indoor Unit Reference Superheating {deltaC}


!-   ===========  ALL OBJECTS IN CLASS: COIL:HEATING:DX:VARIABLEREFRIGERANTFLOW:FLUIDTEMPERATURECONTROL ===========

Coil:Heating:DX:VariableRefrigerantFlow:FluidTemperatureControl,
    ,                        !- Name
    ,                        !- Availability Schedule
    ,                        !- Coil Air Inlet Node
    ,                        !- Coil Air Outlet Node
    ,                        !- Rated Total Heating Capacity {W}
    5;                       !- Indoor Unit Reference Subcooling {deltaC}


!-   ===========  ALL OBJECTS IN CLASS: COIL:HEATING:WATER ===========

Coil:Heating:Water,
    ,                        !- Name
    ,                        !- Availability Schedule Name
    autosize,                !- U-Factor Times Area Value {W/K}
    autosize,                !- Maximum Water Flow Rate {m3/s}
    ,                        !- Water Inlet Node Name
    ,                        !- Water Outlet Node Name
    ,                        !- Air Inlet Node Name
    ,                        !- Air Outlet Node Name
    UFactorTimesAreaAndDesignWaterFlowRate,  !- Performance Input Method
    autosize,                !- Rated Capacity {W}
    82.2,                    !- Rated Inlet Water Temperature {C}
    16.6,                    !- Rated Inlet Air Temperature {C}
    71.1,                    !- Rated Outlet Water Temperature {C}
    32.2,                    !- Rated Outlet Air Temperature {C}
    0.5;                     !- Rated Ratio for Air and Water Convection


!-   ===========  ALL OBJECTS IN CLASS: COIL:HEATING:STEAM ===========

Coil:Heating:Steam,
    ,                        !- Name
    ,                        !- Availability Schedule Name
    ,                        !- Maximum Steam Flow Rate {m3/s}
    ,                        !- Degree of SubCooling {C}
    20;                      !- Degree of Loop SubCooling {C}


!-   ===========  ALL OBJECTS IN CLASS: COIL:HEATING:ELECTRIC ===========

Coil:Heating:Electric,
    ,                        !- Name
    ,                        !- Availability Schedule Name
    1;                       !- Efficiency


!-   ===========  ALL OBJECTS IN CLASS: COIL:HEATING:ELECTRIC:MULTISTAGE ===========

Coil:Heating:Electric:MultiStage,
    ;                        !- Name


!-   ===========  ALL OBJECTS IN CLASS: COIL:HEATING:FUEL ===========

Coil:Heating:Fuel,
    ,                        !- Name
    ,                        !- Availability Schedule Name
    NaturalGas,              !- Fuel Type
    0.8,                     !- Burner Efficiency
    ,                        !- Nominal Capacity {W}
    ,                        !- Air Inlet Node Name
    ;                        !- Air Outlet Node Name


!-   ===========  ALL OBJECTS IN CLASS: COIL:HEATING:GAS:MULTISTAGE ===========

Coil:Heating:Gas:MultiStage,
    ,                        !- Name
    ,                        !- Availability Schedule Name
    ,                        !- Air Inlet Node Name
    ,                        !- Air Outlet Node Name
    ,                        !- Temperature Setpoint Node Name
    ,                        !- Part Load Fraction Correlation Curve Name
    ,                        !- Parasitic Gas Load {W}
    ;                        !- Number of Stages


!-   ===========  ALL OBJECTS IN CLASS: COIL:HEATING:DESUPERHEATER ===========

Coil:Heating:Desuperheater,
    ,                        !- Name
    ,                        !- Availability Schedule Name
    ,                        !- Heat Reclaim Recovery Efficiency
    ,                        !- Air Inlet Node Name
    ,                        !- Air Outlet Node Name
    ,                        !- Heating Source Object Type
    ;                        !- Heating Source Name


!-   ===========  ALL OBJECTS IN CLASS: COIL:HEATING:DX:SINGLESPEED ===========

Coil:Heating:DX:SingleSpeed,
    ,                        !- Name
    ,                        !- Availability Schedule Name
    ,                        !- Gross Rated Heating Capacity {W}
    ,                        !- Gross Rated Heating COP {W/W}
    ,                        !- Rated Air Flow Rate {m3/s}
    773.3,                   !- Rated Supply Fan Power Per Volume Flow Rate {W/(m3/s)}
    ,                        !- Air Inlet Node Name
    ,                        !- Air Outlet Node Name
    ,                        !- Heating Capacity Function of Temperature Curve Name
    ,                        !- Heating Capacity Function of Flow Fraction Curve Name
    ,                        !- Energy Input Ratio Function of Temperature Curve Name
    ,                        !- Energy Input Ratio Function of Flow Fraction Curve Name
    ,                        !- Part Load Fraction Correlation Curve Name
    ,                        !- Defrost Energy Input Ratio Function of Temperature Curve Name
    -8,                      !- Minimum Outdoor Dry-Bulb Temperature for Compressor Operation {C}
    ,                        !- Outdoor Dry-Bulb Temperature to Turn On Compressor {C}
    5,                       !- Maximum Outdoor Dry-Bulb Temperature for Defrost Operation {C}
    ,                        !- Crankcase Heater Capacity {W}
    10,                      !- Maximum Outdoor Dry-Bulb Temperature for Crankcase Heater Operation {C}
    ReverseCycle,            !- Defrost Strategy
    Timed,                   !- Defrost Control
    0.058333,                !- Defrost Time Period Fraction
    ,                        !- Resistive Defrost Heater Capacity {W}
    4,                       !- Region number for calculating HSPF
    ,                        !- Evaporator Air Inlet Node Name
    ,                        !- Zone Name for Evaporator Placement
    ,                        !- Secondary Coil Air Flow Rate {m3/s}
    1.25;                    !- Secondary Coil Fan Flow Scaling Factor {m3/s}


!-   ===========  ALL OBJECTS IN CLASS: COIL:HEATING:DX:MULTISPEED ===========

Coil:Heating:DX:MultiSpeed,
    ,                        !- Name
    ,                        !- Availability Schedule Name
    ,                        !- Air Inlet Node Name
    ,                        !- Air Outlet Node Name
    -8,                      !- Minimum Outdoor Dry-Bulb Temperature for Compressor Operation {C}
    ,                        !- Outdoor Dry-Bulb Temperature to Turn On Compressor {C}
    ,                        !- Crankcase Heater Capacity {W}
    10,                      !- Maximum Outdoor Dry-Bulb Temperature for Crankcase Heater Operation {C}
    ,                        !- Defrost Energy Input Ratio Function of Temperature Curve Name
    5,                       !- Maximum Outdoor Dry-Bulb Temperature for Defrost Operation {C}
    ReverseCycle,            !- Defrost Strategy
    Timed,                   !- Defrost Control
    0.058333,                !- Defrost Time Period Fraction
    ,                        !- Resistive Defrost Heater Capacity {W}
    No,                      !- Apply Part Load Fraction to Speeds Greater than 1
    ,                        !- Fuel Type
    4,                       !- Region number for Calculating HSPF
    ,                        !- Number of Speeds
    ,                        !- Speed 1 Gross Rated Heating Capacity {W}
    ,                        !- Speed 1 Gross Rated Heating COP {W/W}
    ,                        !- Speed 1 Rated Air Flow Rate {m3/s}
    773.3,                   !- Speed 1 Rated Supply Air Fan Power Per Volume Flow Rate {W/(m3/s)}
    ,                        !- Speed 1 Heating Capacity Function of Temperature Curve Name
    ,                        !- Speed 1 Heating Capacity Function of Flow Fraction Curve Name
    ,                        !- Speed 1 Energy Input Ratio Function of Temperature Curve Name
    ,                        !- Speed 1 Energy Input Ratio Function of Flow Fraction Curve Name
    ,                        !- Speed 1 Part Load Fraction Correlation Curve Name
    0.2,                     !- Speed 1 Rated Waste Heat Fraction of Power Input {dimensionless}
    ,                        !- Speed 1 Waste Heat Function of Temperature Curve Name
    ,                        !- Speed 2 Gross Rated Heating Capacity {W}
    ,                        !- Speed 2 Gross Rated Heating COP {W/W}
    ,                        !- Speed 2 Rated Air Flow Rate {m3/s}
    773.3,                   !- Speed 2 Rated Supply Air Fan Power Per Volume Flow Rate {W/(m3/s)}
    ,                        !- Speed 2 Heating Capacity Function of Temperature Curve Name
    ,                        !- Speed 2 Heating Capacity Function of Flow Fraction Curve Name
    ,                        !- Speed 2 Energy Input Ratio Function of Temperature Curve Name
    ,                        !- Speed 2 Energy Input Ratio Function of Flow Fraction Curve Name
    ,                        !- Speed 2 Part Load Fraction Correlation Curve Name
    0.2,                     !- Speed 2 Rated Waste Heat Fraction of Power Input {dimensionless}
    ,                        !- Speed 2 Waste Heat Function of Temperature Curve Name
    ,                        !- Speed 3 Gross Rated Heating Capacity {W}
    ,                        !- Speed 3 Gross Rated Heating COP {W/W}
    ,                        !- Speed 3 Rated Air Flow Rate {m3/s}
    773.3,                   !- Speed 3 Rated Supply Air Fan Power Per Volume Flow Rate {W/(m3/s)}
    ,                        !- Speed 3 Heating Capacity Function of Temperature Curve Name
    ,                        !- Speed 3 Heating Capacity Function of Flow Fraction Curve Name
    ,                        !- Speed 3 Energy Input Ratio Function of Temperature Curve Name
    ,                        !- Speed 3 Energy Input Ratio Function of Flow Fraction Curve Name
    ,                        !- Speed 3 Part Load Fraction Correlation Curve Name
    0.2,                     !- Speed 3 Rated Waste Heat Fraction of Power Input {dimensionless}
    ,                        !- Speed 3 Waste Heat Function of Temperature Curve Name
    ,                        !- Speed 4 Gross Rated Heating Capacity {W}
    ,                        !- Speed 4 Gross Rated Heating COP {W/W}
    ,                        !- Speed 4 Rated Air Flow Rate {m3/s}
    773.3,                   !- Speed 4 Rated Supply Air Fan Power Per Volume Flow Rate {W/(m3/s)}
    ,                        !- Speed 4 Heating Capacity Function of Temperature Curve Name
    ,                        !- Speed 4 Heating Capacity Function of Flow Fraction Curve Name
    ,                        !- Speed 4 Energy Input Ratio Function of Temperature Curve Name
    ,                        !- Speed 4 Energy Input Ratio Function of Flow Fraction Curve Name
    ,                        !- Speed 4 Part Load Fraction Correlation Curve Name
    0.2,                     !- Speed 4 Rated Waste Heat Fraction of Power Input {dimensionless}
    ,                        !- Speed 4 Waste Heat Function of Temperature Curve Name
    ,                        !- Zone Name for Evaporator Placement
    ,                        !- Speed 1 Secondary Coil Air Flow Rate {m3/s}
    1.25,                    !- Speed 1 Secondary Coil Fan Flow Scaling Factor {m3/s}
    ,                        !- Speed 1 Nominal Sensible Heat Ratio of Secondary Coil {m3/s}
    ,                        !- Speed 1 Sensible Heat Ratio Modifier Function of Temperature Curve Name
    ,                        !- Speed 1 Sensible Heat Ratio Modifier Function of Flow Fraction Curve Name
    ,                        !- Speed 2 Secondary Coil Air Flow Rate {m3/s}
    1.25,                    !- Speed 2 Secondary Coil Fan Flow Scaling Factor {m3/s}
    ,                        !- Speed 2 Nominal Sensible Heat Ratio of Secondary Coil {m3/s}
    ,                        !- Speed 2 Sensible Heat Ratio Modifier Function of Temperature Curve Name
    ,                        !- Speed 2 Sensible Heat Ratio Modifier Function of Flow Fraction Curve Name
    ,                        !- Speed 3 Secondary Coil Air Flow Rate {m3/s}
    1.25,                    !- Speed 3 Secondary Coil Fan Flow Scaling Factor {m3/s}
    ,                        !- Speed 3 Nominal Sensible Heat Ratio of Secondary Coil {m3/s}
    ,                        !- Speed 3 Sensible Heat Ratio Modifier Function of Temperature Curve Name
    ,                        !- Speed 3 Sensible Heat Ratio Modifier Function of Flow Fraction Curve Name
    ,                        !- Speed 4 Secondary Coil Air Flow Rate {m3/s}
    1.25;                    !- Speed 4 Secondary Coil Fan Flow Scaling Factor {m3/s}


!-   ===========  ALL OBJECTS IN CLASS: COIL:HEATING:DX:VARIABLESPEED ===========

Coil:Heating:DX:VariableSpeed,
    ,                        !- Name
    ,                        !- Indoor Air Inlet Node Name
    ,                        !- Indoor Air Outlet Node Name
    2,                       !- Number of Speeds {dimensionless}
    2,                       !- Nominal Speed Level {dimensionless}
    autosize,                !- Rated Heating Capacity At Selected Nominal Speed Level {W}
    autosize,                !- Rated Air Flow Rate At Selected Nominal Speed Level {m3/s}
    ,                        !- Energy Part Load Fraction Curve Name
    ,                        !- Defrost Energy Input Ratio Function of Temperature Curve Name
    -8,                      !- Minimum Outdoor Dry-Bulb Temperature for Compressor Operation {C}
    ,                        !- Outdoor Dry-Bulb Temperature to Turn On Compressor {C}
    5,                       !- Maximum Outdoor Dry-Bulb Temperature for Defrost Operation {C}
    ,                        !- Crankcase Heater Capacity {W}
    10,                      !- Maximum Outdoor Dry-Bulb Temperature for Crankcase Heater Operation {C}
    ReverseCycle,            !- Defrost Strategy
    Timed,                   !- Defrost Control
    0.058333,                !- Defrost Time Period Fraction
    ,                        !- Resistive Defrost Heater Capacity {W}
    ,                        !- Speed 1 Reference Unit Gross Rated Heating Capacity {W}
    ,                        !- Speed 1 Reference Unit Gross Rated Heating COP {W/W}
    ,                        !- Speed 1 Reference Unit Rated Air Flow Rate {m3/s}
    ,                        !- Speed 1 Heating Capacity Function of Temperature Curve Name
    ,                        !- Speed 1 Total  Heating Capacity Function of Air Flow Fraction Curve Name
    ,                        !- Speed 1 Energy Input Ratio Function of Temperature Curve Name
    ;                        !- Speed 1 Energy Input Ratio Function of Air Flow Fraction Curve Name


!-   ===========  ALL OBJECTS IN CLASS: COIL:COOLING:WATERTOAIRHEATPUMP:PARAMETERESTIMATION ===========

Coil:Cooling:WaterToAirHeatPump:ParameterEstimation,
    ,                        !- Name
    ,                        !- Compressor Type
    R22,                     !- Refrigerant Type
    ,                        !- Design Source Side Flow Rate {m3/s}
    ,                        !- Nominal Cooling Coil Capacity {W}
    ,                        !- Nominal Time for Condensate Removal to Begin {s}
    ,                        !- Ratio of Initial Moisture Evaporation Rate and Steady State Latent Capacity {dimensionless}
    ,                        !- High Pressure Cutoff {Pa}
    ,                        !- Low Pressure Cutoff {Pa}
    ,                        !- Water Inlet Node Name
    ,                        !- Water Outlet Node Name
    ,                        !- Air Inlet Node Name
    ,                        !- Air Outlet Node Name
    ,                        !- Load Side Total Heat Transfer Coefficient {W/K}
    ,                        !- Load Side Outside Surface Heat Transfer Coefficient {W/K}
    ,                        !- Superheat Temperature at the Evaporator Outlet {C}
    ,                        !- Compressor Power Losses {W}
    ;                        !- Compressor Efficiency


!-   ===========  ALL OBJECTS IN CLASS: COIL:HEATING:WATERTOAIRHEATPUMP:PARAMETERESTIMATION ===========

Coil:Heating:WaterToAirHeatPump:ParameterEstimation,
    ,                        !- Name
    ,                        !- Compressor Type
    R22,                     !- Refrigerant Type
    ,                        !- Design Source Side Flow Rate {m3/s}
    ,                        !- Gross Rated Heating Capacity {W}
    ,                        !- High Pressure Cutoff {Pa}
    ,                        !- Low Pressure Cutoff {Pa}
    ,                        !- Water Inlet Node Name
    ,                        !- Water Outlet Node Name
    ,                        !- Air Inlet Node Name
    ,                        !- Air Outlet Node Name
    ,                        !- Load Side Total Heat Transfer Coefficient {W/K}
    ,                        !- Superheat Temperature at the Evaporator Outlet {C}
    ,                        !- Compressor Power Losses {W}
    ;                        !- Compressor Efficiency


!-   ===========  ALL OBJECTS IN CLASS: COIL:COOLING:WATERTOAIRHEATPUMP:EQUATIONFIT ===========

Coil:Cooling:WaterToAirHeatPump:EquationFit,
    ;                        !- Name


!-   ===========  ALL OBJECTS IN CLASS: COIL:COOLING:WATERTOAIRHEATPUMP:VARIABLESPEEDEQUATIONFIT ===========

Coil:Cooling:WaterToAirHeatPump:VariableSpeedEquationFit,
    ,                        !- Name
    ,                        !- Water-to-Refrigerant HX Water Inlet Node Name
    ,                        !- Water-to-Refrigerant HX Water Outlet Node Name
    ,                        !- Indoor Air Inlet Node Name
    ,                        !- Indoor Air Outlet Node Name
    2,                       !- Number of Speeds {dimensionless}
    2,                       !- Nominal Speed Level {dimensionless}
    autosize,                !- Gross Rated Total Cooling Capacity At Selected Nominal Speed Level {W}
    autosize,                !- Rated Air Flow Rate At Selected Nominal Speed Level {m3/s}
    autosize,                !- Rated Water Flow Rate At Selected Nominal Speed Level {m3/s}
    ,                        !- Nominal Time for Condensate to Begin Leaving the Coil {s}
    ,                        !- Initial Moisture Evaporation Rate Divided by Steady-State AC Latent Capacity {dimensionless}
    ,                        !- Flag for Using Hot Gas Reheat, 0 or 1 {dimensionless}
    ,                        !- Energy Part Load Fraction Curve Name
    ,                        !- Speed 1 Reference Unit Gross Rated Total Cooling Capacity {W}
    ,                        !- Speed 1 Reference Unit Gross Rated Sensible Heat Ratio {dimensionless}
    ,                        !- Speed 1 Reference Unit Gross Rated Cooling COP {W/W}
    ,                        !- Speed 1 Reference Unit Rated Air Flow Rate {m3/s}
    ,                        !- Speed 1 Reference Unit Rated Water Flow Rate {m3/s}
    ,                        !- Speed 1 Total Cooling Capacity Function of Temperature Curve Name
    ,                        !- Speed 1 Total Cooling Capacity Function of Air Flow Fraction Curve Name
    ,                        !- Speed 1 Total Cooling Capacity Function of Water Flow Fraction Curve Name
    ,                        !- Speed 1 Energy Input Ratio Function of Temperature Curve Name
    ,                        !- Speed 1 Energy Input Ratio Function of Air Flow Fraction Curve Name
    ,                        !- Speed 1 Energy Input Ratio Function of Water Flow Fraction Curve Name
    ,                        !- Speed 1 Reference Unit Waste Heat Fraction of Input Power At Rated Conditions {dimensionless}
    ;                        !- Speed 1 Waste Heat Function of Temperature Curve Name


!-   ===========  ALL OBJECTS IN CLASS: COIL:HEATING:WATERTOAIRHEATPUMP:EQUATIONFIT ===========

Coil:Heating:WaterToAirHeatPump:EquationFit,
    ;                        !- Name


!-   ===========  ALL OBJECTS IN CLASS: COIL:HEATING:WATERTOAIRHEATPUMP:VARIABLESPEEDEQUATIONFIT ===========

Coil:Heating:WaterToAirHeatPump:VariableSpeedEquationFit,
    ,                        !- Name
    ,                        !- Water-to-Refrigerant HX Water Inlet Node Name
    ,                        !- Water-to-Refrigerant HX Water Outlet Node Name
    ,                        !- Indoor Air Inlet Node Name
    ,                        !- Indoor Air Outlet Node Name
    2,                       !- Number of Speeds {dimensionless}
    2,                       !- Nominal Speed Level {dimensionless}
    autosize,                !- Rated Heating Capacity At Selected Nominal Speed Level {W}
    autosize,                !- Rated Air Flow Rate At Selected Nominal Speed Level {m3/s}
    autosize,                !- Rated Water Flow Rate At Selected Nominal Speed Level {m3/s}
    ,                        !- Energy Part Load Fraction Curve Name
    ,                        !- Speed 1 Reference Unit Gross Rated Heating Capacity {W}
    ,                        !- Speed 1 Reference Unit Gross Rated Heating COP {W/W}
    ,                        !- Speed 1 Reference Unit Rated Air Flow {m3/s}
    ,                        !- Speed 1 Reference Unit Rated Water Flow Rate {m3/s}
    ,                        !- Speed 1 Heating Capacity Function of Temperature Curve Name
    ,                        !- Speed 1 Total  Heating Capacity Function of Air Flow Fraction Curve Name
    ,                        !- Speed 1 Heating Capacity Function of Water Flow Fraction Curve Name
    ,                        !- Speed 1 Energy Input Ratio Function of Temperature Curve Name
    ,                        !- Speed 1 Energy Input Ratio Function of Air Flow Fraction Curve Name
    ,                        !- Speed 1 Energy Input Ratio Function of Water Flow Fraction Curve Name
    ,                        !- Speed 1 Reference Unit Waste Heat Fraction of Input Power At Rated Conditions {dimensionless}
    ;                        !- Speed 1 Waste Heat Function of Temperature Curve Name


!-   ===========  ALL OBJECTS IN CLASS: COIL:WATERHEATING:AIRTOWATERHEATPUMP:PUMPED ===========

Coil:WaterHeating:AirToWaterHeatPump:Pumped,
    ,                        !- Name
    ,                        !- Rated Heating Capacity {W}
    3.2,                     !- Rated COP {W/W}
    0.85,                    !- Rated Sensible Heat Ratio
    19.7,                    !- Rated Evaporator Inlet Air Dry-Bulb Temperature {C}
    13.5,                    !- Rated Evaporator Inlet Air Wet-Bulb Temperature {C}
    57.5,                    !- Rated Condenser Inlet Water Temperature {C}
    ,                        !- Rated Evaporator Air Flow Rate {m3/s}
    ,                        !- Rated Condenser Water Flow Rate {m3/s}
    Yes,                     !- Evaporator Fan Power Included in Rated COP
    No,                      !- Condenser Pump Power Included in Rated COP
    No,                      !- Condenser Pump Heat Included in Rated Heating Capacity and Rated COP
    ,                        !- Condenser Water Pump Power {W}
    0.2,                     !- Fraction of Condenser Pump Heat to Water
    ,                        !- Evaporator Air Inlet Node Name
    ,                        !- Evaporator Air Outlet Node Name
    ,                        !- Condenser Water Inlet Node Name
    ,                        !- Condenser Water Outlet Node Name
    ,                        !- Crankcase Heater Capacity {W}
    10,                      !- Maximum Ambient Temperature for Crankcase Heater Operation {C}
    WetBulbTemperature;      !- Evaporator Air Temperature Type for Curve Objects


!-   ===========  ALL OBJECTS IN CLASS: COIL:WATERHEATING:AIRTOWATERHEATPUMP:WRAPPED ===========

Coil:WaterHeating:AirToWaterHeatPump:Wrapped,
    ,                        !- Name
    ,                        !- Rated Heating Capacity {W}
    3.2,                     !- Rated COP {W/W}
    0.85,                    !- Rated Sensible Heat Ratio
    19.7,                    !- Rated Evaporator Inlet Air Dry-Bulb Temperature {C}
    13.5,                    !- Rated Evaporator Inlet Air Wet-Bulb Temperature {C}
    57.5,                    !- Rated Condenser Water Temperature {C}
    ,                        !- Rated Evaporator Air Flow Rate {m3/s}
    Yes,                     !- Evaporator Fan Power Included in Rated COP
    ,                        !- Evaporator Air Inlet Node Name
    ,                        !- Evaporator Air Outlet Node Name
    ,                        !- Crankcase Heater Capacity {W}
    10,                      !- Maximum Ambient Temperature for Crankcase Heater Operation {C}
    WetBulbTemperature;      !- Evaporator Air Temperature Type for Curve Objects


!-   ===========  ALL OBJECTS IN CLASS: COIL:WATERHEATING:AIRTOWATERHEATPUMP:VARIABLESPEED ===========

Coil:WaterHeating:AirToWaterHeatPump:VariableSpeed,
    ,                        !- Name
    1,                       !- Number of Speeds {dimensionless}
    1,                       !- Nominal Speed Level {dimensionless}
    ,                        !- Rated Water Heating Capacity {W}
    19.7,                    !- Rated Evaporator Inlet Air Dry-Bulb Temperature {C}
    13.5,                    !- Rated Evaporator Inlet Air Wet-Bulb Temperature {C}
    57.5,                    !- Rated Condenser Inlet Water Temperature {C}
    ,                        !- Rated Evaporator Air Flow Rate {m3/s}
    ,                        !- Rated Condenser Water Flow Rate {m3/s}
    Yes,                     !- Evaporator Fan Power Included in Rated COP
    No,                      !- Condenser Pump Power Included in Rated COP
    No,                      !- Condenser Pump Heat Included in Rated Heating Capacity and Rated COP
    0.2,                     !- Fraction of Condenser Pump Heat to Water
    ,                        !- Evaporator Air Inlet Node Name
    ,                        !- Evaporator Air Outlet Node Name
    ,                        !- Condenser Water Inlet Node Name
    ,                        !- Condenser Water Outlet Node Name
    ,                        !- Crankcase Heater Capacity {W}
    10,                      !- Maximum Ambient Temperature for Crankcase Heater Operation {C}
    WetBulbTemperature,      !- Evaporator Air Temperature Type for Curve Objects
    ,                        !- Part Load Fraction Correlation Curve Name
    ,                        !- Rated Water Heating Capacity at Speed 1 {W}
    3.2,                     !- Rated Water Heating COP at Speed 1 {W/W}
    0.85,                    !- Rated Sensible Heat Ratio at Speed 1
    ,                        !- Speed 1 Reference Unit Rated Air Flow Rate {m3/s}
    ,                        !- Speed 1 Reference Unit Rated Water Flow Rate {m3/s}
    ,                        !- Speed 1 Reference Unit Water Pump Input Power At Rated Conditions {W}
    ,                        !- Speed 1 Total WH Capacity Function of Temperature Curve Name
    ,                        !- Speed 1 Total WH Capacity Function of Air Flow Fraction Curve Name
    ,                        !- Speed 1 Total WH Capacity Function of Water Flow Fraction Curve Name
    ,                        !- Speed 1 COP Function of Temperature Curve Name
    ,                        !- Speed 1 COP Function of Air Flow Fraction Curve Name
    ,                        !- Speed 1 COP Function of Water Flow Fraction Curve Name
    ,                        !- Rated Water Heating Capacity at Speed 2 {W}
    3.2,                     !- Rated Water Heating COP at Speed 2 {W/W}
    0.85,                    !- Rated Sensible Heat Ratio at Speed 2
    ,                        !- Speed 2 Reference Unit Rated Air Flow Rate {m3/s}
    ,                        !- Speed 2 Reference Unit Rated Water Flow Rate {m3/s}
    ,                        !- Speed 2 Reference Unit Water Pump Input Power At Rated Conditions {dimensionless}
    ,                        !- Speed 2 Total WH Capacity Function of Temperature Curve Name
    ,                        !- Speed 2 Total WH Capacity Function of Air Flow Fraction Curve Name
    ,                        !- Speed 2 Total WH Capacity Function of Water Flow Fraction Curve Name
    ,                        !- Speed 2 COP Function of Temperature Curve Name
    ,                        !- Speed 2 COP Function of Air Flow Fraction Curve Name
    ,                        !- Speed 2 COP Function of Water Flow Fraction Curve Name
    ,                        !- Rated Water Heating Capacity at speed 3 {W}
    3.2,                     !- Rated Water Heating COP at Speed 3 {W/W}
    0.85,                    !- Rated Sensible Heat Ratio at Speed 3
    ,                        !- Speed 3 Reference Unit Rated Air Flow Rate {m3/s}
    ,                        !- Speed 3 Reference Unit Rated Water Flow Rate {m3/s}
    ,                        !- Speed 3 Reference Unit Water Pump Input Power At Rated Conditions {dimensionless}
    ,                        !- Speed 3 Total WH Capacity Function of Temperature Curve Name
    ,                        !- Speed 3 Total WH Capacity Function of Air Flow Fraction Curve Name
    ,                        !- Speed 3 Total WH Capacity Function of Water Flow Fraction Curve Name
    ,                        !- Speed 3 COP Function of Temperature Curve Name
    ,                        !- Speed 3 COP Function of Air Flow Fraction Curve Name
    ,                        !- Speed 3 COP Function of Water Flow Fraction Curve Name
    ,                        !- Rated Water Heating Capacity at Speed 4 {W}
    3.2,                     !- Rated Water Heating COP at Speed 4 {W/W}
    0.85,                    !- Rated Sensible Heat Ratio at Speed 4
    ,                        !- Speed 4 Reference Unit Rated Air Flow Rate {m3/s}
    ,                        !- Speed 4 Reference Unit Rated Water Flow Rate {m3/s}
    ,                        !- Speed 4 Reference Unit Water Pump Input Power At Rated Conditions {dimensionless}
    ,                        !- Speed 4 Total WH Capacity Function of Temperature Curve Name
    ,                        !- Speed 4 Total WH Capacity Function of Air Flow Fraction Curve Name
    ,                        !- Speed 4 Total WH Capacity Function of Water Flow Fraction Curve Name
    ,                        !- Speed 4 COP Function of Temperature Curve Name
    ,                        !- Speed 4 COP Function of Air Flow Fraction Curve Name
    ,                        !- Speed 4 COP Function of Water Flow Fraction Curve Name
    ,                        !- Rated Water Heating Capacity at Speed 5 {W}
    3.2,                     !- Rated Water Heating COP at Speed 5 {W/W}
    0.85,                    !- Rated Sensible Heat Ratio at Speed 5
    ,                        !- Speed 5 Reference Unit Rated Air Flow Rate {m3/s}
    ,                        !- Speed 5 Reference Unit Rated Water Flow Rate {m3/s}
    ,                        !- Speed 5 Reference Unit Water Pump Input Power At Rated Conditions {dimensionless}
    ,                        !- Speed 5 Total WH Capacity Function of Temperature Curve Name
    ,                        !- Speed 5 Total WH Capacity Function of Air Flow Fraction Curve Name
    ,                        !- Speed 5 Total WH Capacity Function of Water Flow Fraction Curve Name
    ,                        !- Speed 5 COP Function of Temperature Curve Name
    ,                        !- Speed 5 COP Function of Air Flow Fraction Curve Name
    ,                        !- Speed 5 COP Function of Water Flow Fraction Curve Name
    ,                        !- Rated Water Heating Capacity at Speed 6 {W}
    3.2,                     !- Rated Water Heating COP at Speed 6 {W/W}
    0.85,                    !- Rated Sensible Heat Ratio at Speed 6
    ,                        !- Speed 6 Reference Unit Rated Air Flow Rate {m3/s}
    ,                        !- Speed 6 Reference Unit Rated Water Flow Rate {m3/s}
    ,                        !- Speed 6 Reference Unit Water Pump Input Power At Rated Conditions {dimensionless}
    ,                        !- Speed 6 Total WH Capacity Function of Temperature Curve Name
    ,                        !- Speed 6 Total WH Capacity Function of Air Flow Fraction Curve Name
    ,                        !- Speed 6 Total WH Capacity Function of Water Flow Fraction Curve Name
    ,                        !- Speed 6 COP Function of Temperature Curve Name
    ,                        !- Speed 6 COP Function of Air Flow Fraction Curve Name
    ,                        !- Speed 6 COP Function of Water Flow Fraction Curve Name
    ,                        !- Rated Water Heating Capacity at Speed 7 {W}
    3.2,                     !- Rated Water Heating COP at Speed 7 {W/W}
    0.85,                    !- Rated Sensible Heat Ratio at Speed 7
    ,                        !- Speed 7 Reference Unit Rated Air Flow Rate {m3/s}
    ,                        !- Speed 7 Reference Unit Rated Water Flow Rate {m3/s}
    ,                        !- Speed 7 Reference Unit Water Pump Input Power At Rated Conditions {dimensionless}
    ,                        !- Speed 7 Total WH Capacity Function of Temperature Curve Name
    ,                        !- Speed 7 Total WH Capacity Function of Air Flow Fraction Curve Name
    ,                        !- Speed 7 Total WH Capacity Function of Water Flow Fraction Curve Name
    ,                        !- Speed 7 COP Function of Temperature Curve Name
    ,                        !- Speed 7 COP Function of Air Flow Fraction Curve Name
    ,                        !- Speed 7 COP Function of Water Flow Fraction Curve Name
    ,                        !- Rated Water Heating Capacity at Speed 8 {W}
    3.2,                     !- Rated Water Heating COP at Speed 8 {W/W}
    0.85,                    !- Rated Sensible Heat Ratio at Speed 8
    ,                        !- Speed 8 Reference Unit Rated Air Flow Rate {m3/s}
    ,                        !- Speed 8 Reference Unit Rated Water Flow Rate {m3/s}
    ,                        !- Speed 8 Reference Unit Water Pump Input Power At Rated Conditions {dimensionless}
    ,                        !- Speed 8 Total WH Capacity Function of Temperature Curve Name
    ,                        !- Speed 8 Total WH Capacity Function of Air Flow Fraction Curve Name
    ,                        !- Speed 8 Total WH Capacity Function of Water Flow Fraction Curve Name
    ,                        !- Speed 8 COP Function of Temperature Curve Name
    ,                        !- Speed 8 COP Function of Air Flow Fraction Curve Name
    ,                        !- Speed 8 COP Function of Water Flow Fraction Curve Name
    ,                        !- Rated Water Heating Capacity at Speed 9 {W}
    3.2,                     !- Rated Water Heating COP at Speed 9 {W/W}
    0.85,                    !- Rated Sensible Heat Ratio at Speed 9
    ,                        !- Speed 9 Reference Unit Rated Air Flow Rate {m3/s}
    ,                        !- Speed 9 Reference Unit Rated Water Flow Rate {m3/s}
    ,                        !- Speed 9 Reference Unit Water Pump Input Power At Rated Conditions {dimensionless}
    ,                        !- Speed 9 Total WH Capacity Function of Temperature Curve Name
    ,                        !- Speed 9 Total WH Capacity Function of Air Flow Fraction Curve Name
    ,                        !- Speed 9 Total WH Capacity Function of Water Flow Fraction Curve Name
    ,                        !- Speed 9 COP Function of Temperature Curve Name
    ,                        !- Speed 9 COP Function of Air Flow Fraction Curve Name
    ,                        !- Speed 9 COP Function of Water Flow Fraction Curve Name
    ,                        !- Rated Water Heating Capacity at Speed 10 {W}
    3.2,                     !- Rated Water Heating COP at Speed 10 {W/W}
    0.85;                    !- Rated Sensible Heat Ratio at Speed 10


!-   ===========  ALL OBJECTS IN CLASS: COIL:WATERHEATING:DESUPERHEATER ===========

Coil:WaterHeating:Desuperheater,
    ,                        !- Name
    ,                        !- Availability Schedule Name
    ,                        !- Setpoint Temperature Schedule Name
    5,                       !- Dead Band Temperature Difference {deltaC}
    ,                        !- Rated Heat Reclaim Recovery Efficiency
    ,                        !- Rated Inlet Water Temperature {C}
    ,                        !- Rated Outdoor Air Temperature {C}
    ,                        !- Maximum Inlet Water Temperature for Heat Reclaim {C}
    ,                        !- Heat Reclaim Efficiency Function of Temperature Curve Name
    ,                        !- Water Inlet Node Name
    ,                        !- Water Outlet Node Name
    WaterHeater:Mixed,       !- Tank Object Type
    ,                        !- Tank Name
    ,                        !- Heating Source Object Type
    ,                        !- Heating Source Name
    ,                        !- Water Flow Rate {m3/s}
    ,                        !- Water Pump Power {W}
    0.2;                     !- Fraction of Pump Heat to Water


!-   ===========  ALL OBJECTS IN CLASS: COILSYSTEM:COOLING:DX ===========

CoilSystem:Cooling:DX,
    ,                        !- Name
    ,                        !- Availability Schedule Name
    ,                        !- DX Cooling Coil System Inlet Node Name
    ,                        !- DX Cooling Coil System Outlet Node Name
    ,                        !- DX Cooling Coil System Sensor Node Name
    ,                        !- Cooling Coil Object Type
    ,                        !- Cooling Coil Name
    None,                    !- Dehumidification Control Type
    Yes,                     !- Run on Sensible Load
    No,                      !- Run on Latent Load
    No,                      !- Use Outdoor Air DX Cooling Coil
    2;                       !- Outdoor Air DX Cooling Coil Leaving Minimum Air Temperature {C}


!-   ===========  ALL OBJECTS IN CLASS: COILSYSTEM:HEATING:DX ===========

CoilSystem:Heating:DX,
    ,                        !- Name
    ,                        !- Availability Schedule Name
    ,                        !- Heating Coil Object Type
    ;                        !- Heating Coil Name


!-   ===========  ALL OBJECTS IN CLASS: COILSYSTEM:COOLING:WATER:HEATEXCHANGERASSISTED ===========

CoilSystem:Cooling:Water:HeatExchangerAssisted,
    ,                        !- Name
    ,                        !- Heat Exchanger Object Type
    ,                        !- Heat Exchanger Name
    ,                        !- Cooling Coil Object Type
    ;                        !- Cooling Coil Name


!-   ===========  ALL OBJECTS IN CLASS: COILSYSTEM:COOLING:DX:HEATEXCHANGERASSISTED ===========

CoilSystem:Cooling:DX:HeatExchangerAssisted,
    ,                        !- Name
    ,                        !- Heat Exchanger Object Type
    ,                        !- Heat Exchanger Name
    ,                        !- Cooling Coil Object Type
    ;                        !- Cooling Coil Name


!-   ===========  ALL OBJECTS IN CLASS: COILSYSTEM:INTEGRATEDHEATPUMP:AIRSOURCE ===========

CoilSystem:IntegratedHeatPump:AirSource,
    ,                        !- Name
    ,                        !- Supply Hot Water Flow Sensor Node Name
    ,                        !- Space Cooling Coil  Name
    ,                        !- Space Heating Coil Name
    ,                        !- Dedicated Water Heating Coil Name
    ,                        !- SCWH Coil Name
    ,                        !- SCDWH Cooling Coil Name
    ,                        !- SCDWH Water Heating Coil Name
    ,                        !- SHDWH Heating Coil Name
    ,                        !- SHDWH Water Heating Coil Name
    20,                      !- Indoor Temperature Limit for SCWH Mode {C}
    27,                      !- Ambient Temperature Limit for SCWH Mode {C}
    20,                      !- Indoor Temperature above Which WH has Higher Priority {C}
    20,                      !- Ambient Temperature above Which WH has Higher Priority {C}
    ,                        !- Flag to Indicate Load Control in SCWH Mode {dimensionless}
    1,                       !- Minimum Speed Level for SCWH Mode {dimensionless}
    ,                        !- Maximum Water Flow Volume before Switching from SCDWH to SCWH Mode {m3}
    1,                       !- Minimum Speed Level for SCDWH Mode {dimensionless}
    360,                     !- Maximum Running Time before Allowing Electric Resistance Heat Use during SHDWH Mode {s}
    1;                       !- Minimum Speed Level for SHDWH Mode {dimensionless}


!-   ===========  ALL OBJECTS IN CLASS: COIL:COOLING:DX:SINGLESPEED:THERMALSTORAGE ===========

Coil:Cooling:DX:SingleSpeed:ThermalStorage,
    ,                        !- Name
    ,                        !- Availability Schedule Name
    ,                        !- Operating Mode Control Method
    ,                        !- Operation Mode Control Schedule Name
    ,                        !- Storage Type
    ,                        !- User Defined Fluid Type
    ,                        !- Fluid Storage Volume {m3}
    ,                        !- Ice Storage Capacity {GJ}
    ,                        !- Storage Capacity Sizing Factor {hr}
    ,                        !- Storage Tank Ambient Temperature Node Name
    ,                        !- Storage Tank to Ambient U-value Times Area Heat Transfer Coefficient {W/K}
    ,                        !- Fluid Storage Tank Rating Temperature {C}
    ,                        !- Rated Evaporator Air Flow Rate {m3/s}
    ,                        !- Evaporator Air Inlet Node Name
    ,                        !- Evaporator Air Outlet Node Name
    ,                        !- Cooling Only Mode Available
    ,                        !- Cooling Only Mode Rated Total Evaporator Cooling Capacity {W}
    0.7,                     !- Cooling Only Mode Rated Sensible Heat Ratio
    3,                       !- Cooling Only Mode Rated COP {W/W}
    ,                        !- Cooling Only Mode Total Evaporator Cooling Capacity Function of Temperature Curve Name
    ,                        !- Cooling Only Mode Total Evaporator Cooling Capacity Function of Flow Fraction Curve Name
    ,                        !- Cooling Only Mode Energy Input Ratio Function of Temperature Curve Name
    ,                        !- Cooling Only Mode Energy Input Ratio Function of Flow Fraction Curve Name
    ,                        !- Cooling Only Mode Part Load Fraction Correlation Curve Name
    ,                        !- Cooling Only Mode Sensible Heat Ratio Function of Temperature Curve Name
    ,                        !- Cooling Only Mode Sensible Heat Ratio Function of Flow Fraction Curve Name
    ,                        !- Cooling And Charge Mode Available
    ,                        !- Cooling And Charge Mode Rated Total Evaporator Cooling Capacity {W}
    0.5,                     !- Cooling And Charge Mode Capacity Sizing Factor
    ,                        !- Cooling And Charge Mode Rated Storage Charging Capacity {W}
    0.5,                     !- Cooling And Charge Mode Storage Capacity Sizing Factor
    0.7,                     !- Cooling And Charge Mode Rated Sensible Heat Ratio
    3,                       !- Cooling And Charge Mode Cooling Rated COP {W/W}
    3,                       !- Cooling And Charge Mode Charging Rated COP {W/W}
    ,                        !- Cooling And Charge Mode Total Evaporator Cooling Capacity Function of Temperature Curve Name
    ,                        !- Cooling And Charge Mode Total Evaporator Cooling Capacity Function of Flow Fraction Curve Name
    ,                        !- Cooling And Charge Mode Evaporator Energy Input Ratio Function of Temperature Curve Name
    ,                        !- Cooling And Charge Mode Evaporator Energy Input Ratio Function of Flow Fraction Curve Name
    ,                        !- Cooling And Charge Mode Evaporator Part Load Fraction Correlation Curve Name
    ,                        !- Cooling And Charge Mode Storage Charge Capacity Function of Temperature Curve Name
    ,                        !- Cooling And Charge Mode Storage Charge Capacity Function of Total Evaporator PLR Curve Name
    ,                        !- Cooling And Charge Mode Storage Energy Input Ratio Function of Temperature Curve Name
    ,                        !- Cooling And Charge Mode Storage Energy Input Ratio Function of Flow Fraction Curve Name
    ,                        !- Cooling And Charge Mode Storage Energy Part Load Fraction Correlation Curve Name
    ,                        !- Cooling And Charge Mode Sensible Heat Ratio Function of Temperature Curve Name
    ,                        !- Cooling And Charge Mode Sensible Heat Ratio Function of Flow Fraction Curve Name
    ,                        !- Cooling And Discharge Mode Available
    ,                        !- Cooling And Discharge Mode Rated Total Evaporator Cooling Capacity {W}
    1,                       !- Cooling And Discharge Mode Evaporator Capacity Sizing Factor
    ,                        !- Cooling And Discharge Mode Rated Storage Discharging Capacity {W}
    1,                       !- Cooling And Discharge Mode Storage Discharge Capacity Sizing Factor
    0.7,                     !- Cooling And Discharge Mode Rated Sensible Heat Ratio
    3,                       !- Cooling And Discharge Mode Cooling Rated COP {W/W}
    3,                       !- Cooling And Discharge Mode Discharging Rated COP {W/W}
    ,                        !- Cooling And Discharge Mode Total Evaporator Cooling Capacity Function of Temperature Curve Name
    ,                        !- Cooling And Discharge Mode Total Evaporator Cooling Capacity Function of Flow Fraction Curve Name
    ,                        !- Cooling And Discharge Mode Evaporator Energy Input Ratio Function of Temperature Curve Name
    ,                        !- Cooling And Discharge Mode Evaporator Energy Input Ratio Function of Flow Fraction Curve Name
    ,                        !- Cooling And Discharge Mode Evaporator Part Load Fraction Correlation Curve Name
    ,                        !- Cooling And Discharge Mode Storage Discharge Capacity Function of Temperature Curve Name
    ,                        !- Cooling And Discharge Mode Storage Discharge Capacity Function of Flow Fraction Curve Name
    ,                        !- Cooling And Discharge Mode Storage Discharge Capacity Function of Total Evaporator PLR Curve Name
    ,                        !- Cooling And Discharge Mode Storage Energy Input Ratio Function of Temperature Curve Name
    ,                        !- Cooling And Discharge Mode Storage Energy Input Ratio Function of Flow Fraction Curve Name
    ,                        !- Cooling And Discharge Mode Storage Energy Part Load Fraction Correlation Curve Name
    ,                        !- Cooling And Discharge Mode Sensible Heat Ratio Function of Temperature Curve Name
    ,                        !- Cooling And Discharge Mode Sensible Heat Ratio Function of Flow Fraction Curve Name
    ,                        !- Charge Only Mode Available
    ,                        !- Charge Only Mode Rated Storage Charging Capacity {W}
    1,                       !- Charge Only Mode Capacity Sizing Factor
    3,                       !- Charge Only Mode Charging Rated COP {W/W}
    ,                        !- Charge Only Mode Storage Charge Capacity Function of Temperature Curve Name
    ,                        !- Charge Only Mode Storage Energy Input Ratio Function of Temperature Curve Name
    ,                        !- Discharge Only Mode Available
    ,                        !- Discharge Only Mode Rated Storage Discharging Capacity {W}
    1,                       !- Discharge Only Mode Capacity Sizing Factor
    ,                        !- Discharge Only Mode Rated Sensible Heat Ratio
    3,                       !- Discharge Only Mode Rated COP {W/W}
    ,                        !- Discharge Only Mode Storage Discharge Capacity Function of Temperature Curve Name
    ,                        !- Discharge Only Mode Storage Discharge Capacity Function of Flow Fraction Curve Name
    ,                        !- Discharge Only Mode Energy Input Ratio Function of Temperature Curve Name
    ,                        !- Discharge Only Mode Energy Input Ratio Function of Flow Fraction Curve Name
    ,                        !- Discharge Only Mode Part Load Fraction Correlation Curve Name
    ,                        !- Discharge Only Mode Sensible Heat Ratio Function of Temperature Curve Name
    ,                        !- Discharge Only Mode Sensible Heat Ratio Function of Flow Fraction Curve Name
    ,                        !- Ancillary Electric Power {W}
    ,                        !- Cold Weather Operation Minimum Outdoor Air Temperature {C}
    ,                        !- Cold Weather Operation Ancillary Power {W}
    ,                        !- Condenser Air Inlet Node Name
    ,                        !- Condenser Air Outlet Node Name
    ,                        !- Condenser Design Air Flow Rate {m3/s}
    1,                       !- Condenser Air Flow Sizing Factor
    AirCooled,               !- Condenser Type
    0.7,                     !- Evaporative Condenser Effectiveness {dimensionless}
    ,                        !- Evaporative Condenser Pump Rated Power Consumption {W}
    ,                        !- Basin Heater Capacity {W/K}
    2,                       !- Basin Heater Setpoint Temperature {C}
    ,                        !- Basin Heater Availability Schedule Name
    ,                        !- Supply Water Storage Tank Name
    ,                        !- Condensate Collection Water Storage Tank Name
    ,                        !- Storage Tank Plant Connection Inlet Node Name
    ,                        !- Storage Tank Plant Connection Outlet Node Name
    ,                        !- Storage Tank Plant Connection Design Flow Rate {m3/s}
    0.7;                     !- Storage Tank Plant Connection Heat Transfer Effectiveness


!-   ===========  ALL OBJECTS IN CLASS: EVAPORATIVECOOLER:DIRECT:CELDEKPAD ===========

EvaporativeCooler:Direct:CelDekPad,
    ,                        !- Name
    ,                        !- Availability Schedule Name
    autosize,                !- Direct Pad Area {m2}
    autosize,                !- Direct Pad Depth {m}
    ,                        !- Recirculating Water Pump Power Consumption {W}
    ,                        !- Air Inlet Node Name
    ;                        !- Air Outlet Node Name


!-   ===========  ALL OBJECTS IN CLASS: EVAPORATIVECOOLER:INDIRECT:CELDEKPAD ===========

EvaporativeCooler:Indirect:CelDekPad,
    ,                        !- Name
    ,                        !- Availability Schedule Name
    autosize,                !- Direct Pad Area {m2}
    autosize,                !- Direct Pad Depth {m}
    ,                        !- Recirculating Water Pump Power Consumption {W}
    ,                        !- Secondary Air Fan Flow Rate {m3/s}
    ,                        !- Secondary Air Fan Total Efficiency
    ,                        !- Secondary Air Fan Delta Pressure {Pa}
    ,                        !- Indirect Heat Exchanger Effectiveness
    ,                        !- Primary Air Inlet Node Name
    ,                        !- Primary Air Outlet Node Name
    ,                        !- Control Type
    ,                        !- Water Supply Storage Tank Name
    ;                        !- Secondary Air Inlet Node Name


!-   ===========  ALL OBJECTS IN CLASS: EVAPORATIVECOOLER:INDIRECT:WETCOIL ===========

EvaporativeCooler:Indirect:WetCoil,
    ,                        !- Name
    ,                        !- Availability Schedule Name
    ,                        !- Coil Maximum Efficiency
    ,                        !- Coil Flow Ratio
    ,                        !- Recirculating Water Pump Power Consumption {W}
    ,                        !- Secondary Air Fan Flow Rate {m3/s}
    ,                        !- Secondary Air Fan Total Efficiency
    ,                        !- Secondary Air Fan Delta Pressure {Pa}
    ,                        !- Primary Air Inlet Node Name
    ,                        !- Primary Air Outlet Node Name
    ,                        !- Control Type
    ,                        !- Water Supply Storage Tank Name
    ;                        !- Secondary Air Inlet Node Name


!-   ===========  ALL OBJECTS IN CLASS: EVAPORATIVECOOLER:INDIRECT:RESEARCHSPECIAL ===========

EvaporativeCooler:Indirect:ResearchSpecial,
    ,                        !- Name
    ,                        !- Availability Schedule Name
    ,                        !- Cooler Wetbulb Design Effectiveness
    ,                        !- Wetbulb Effectiveness Flow Ratio Modifier Curve Name
    ,                        !- Cooler Drybulb Design Effectiveness
    ,                        !- Drybulb Effectiveness Flow Ratio Modifier Curve Name
    autosize,                !- Recirculating Water Pump Design Power {W}
    90,                      !- Water Pump Power Sizing Factor {W/(m3/s)}
    ,                        !- Water Pump Power Modifier Curve Name
    autosize,                !- Secondary Air Design Flow Rate {m3/s}
    1,                       !- Secondary Air Flow Scaling Factor {dimensionless}
    autosize,                !- Secondary Air Fan Design Power {W}
    250,                     !- Secondary Air Fan Sizing Specific Power {W/(m3/s)}
    ,                        !- Secondary Air Fan Power Modifier Curve Name
    ,                        !- Primary Air Inlet Node Name
    ,                        !- Primary Air Outlet Node Name
    autosize,                !- Primary Air Design Flow Rate {m3/s}
    ,                        !- Dewpoint Effectiveness Factor
    ,                        !- Secondary Air Inlet Node Name
    ,                        !- Secondary Air Outlet Node Name
    ;                        !- Sensor Node Name


!-   ===========  ALL OBJECTS IN CLASS: EVAPORATIVECOOLER:DIRECT:RESEARCHSPECIAL ===========

EvaporativeCooler:Direct:ResearchSpecial,
    ,                        !- Name
    ,                        !- Availability Schedule Name
    ,                        !- Cooler Design Effectiveness
    ,                        !- Effectiveness Flow Ratio Modifier Curve Name
    autosize,                !- Primary Air Design Flow Rate {m3/s}
    autosize,                !- Recirculating Water Pump Design Power {W}
    90,                      !- Water Pump Power Sizing Factor {W/(m3/s)}
    ,                        !- Water Pump Power Modifier Curve Name
    ,                        !- Air Inlet Node Name
    ,                        !- Air Outlet Node Name
    ;                        !- Sensor Node Name


!-   ===========  ALL OBJECTS IN CLASS: HUMIDIFIER:STEAM:ELECTRIC ===========

Humidifier:Steam:Electric,
    ;                        !- Name


!-   ===========  ALL OBJECTS IN CLASS: HUMIDIFIER:STEAM:GAS ===========

Humidifier:Steam:Gas,
    ,                        !- Name
    ,                        !- Availability Schedule Name
    ,                        !- Rated Capacity {m3/s}
    ,                        !- Rated Gas Use Rate {W}
    0.8,                     !- Thermal Efficiency {dimensionless}
    ,                        !- Thermal Efficiency Modifier Curve Name
    ,                        !- Rated Fan Power {W}
    ,                        !- Auxiliary Electric Power {W}
    ,                        !- Air Inlet Node Name
    ,                        !- Air Outlet Node Name
    ,                        !- Water Storage Tank Name
    FixedInletWaterTemperature;  !- Inlet Water Temperature Option


!-   ===========  ALL OBJECTS IN CLASS: DEHUMIDIFIER:DESICCANT:NOFANS ===========

Dehumidifier:Desiccant:NoFans,
    ;                        !- Name


!-   ===========  ALL OBJECTS IN CLASS: DEHUMIDIFIER:DESICCANT:SYSTEM ===========

Dehumidifier:Desiccant:System,
    ,                        !- Name
    ,                        !- Availability Schedule Name
    ,                        !- Desiccant Heat Exchanger Object Type
    ,                        !- Desiccant Heat Exchanger Name
    ,                        !- Sensor Node Name
    ,                        !- Regeneration Air Fan Object Type
    ,                        !- Regeneration Air Fan Name
    DrawThrough,             !- Regeneration Air Fan Placement
    ,                        !- Regeneration Air Heater Object Type
    ,                        !- Regeneration Air Heater Name
    46,                      !- Regeneration Inlet Air Setpoint Temperature {C}
    ,                        !- Companion Cooling Coil Object Type
    ,                        !- Companion Cooling Coil Name
    No,                      !- Companion Cooling Coil Upstream of Dehumidifier Process Inlet
    No;                      !- Companion Coil Regeneration Air Heating


!-   ===========  ALL OBJECTS IN CLASS: HEATEXCHANGER:AIRTOAIR:FLATPLATE ===========

HeatExchanger:AirToAir:FlatPlate,
    ,                        !- Name
    ,                        !- Availability Schedule Name
    ,                        !- Flow Arrangement Type
    Yes,                     !- Economizer Lockout
    ,                        !- Ratio of Supply to Secondary hA Values
    autosize,                !- Nominal Supply Air Flow Rate {m3/s}
    ,                        !- Nominal Supply Air Inlet Temperature {C}
    ,                        !- Nominal Supply Air Outlet Temperature {C}
    ,                        !- Nominal Secondary Air Flow Rate {m3/s}
    ,                        !- Nominal Secondary Air Inlet Temperature {C}
    ,                        !- Nominal Electric Power {W}
    ,                        !- Supply Air Inlet Node Name
    ,                        !- Supply Air Outlet Node Name
    ,                        !- Secondary Air Inlet Node Name
    ;                        !- Secondary Air Outlet Node Name


!-   ===========  ALL OBJECTS IN CLASS: HEATEXCHANGER:AIRTOAIR:SENSIBLEANDLATENT ===========

HeatExchanger:AirToAir:SensibleAndLatent,
    ,                        !- Name
    ,                        !- Availability Schedule Name
    ,                        !- Nominal Supply Air Flow Rate {m3/s}
    ,                        !- Sensible Effectiveness at 100% Heating Air Flow {dimensionless}
    ,                        !- Latent Effectiveness at 100% Heating Air Flow {dimensionless}
    ,                        !- Sensible Effectiveness at 75% Heating Air Flow {dimensionless}
    ,                        !- Latent Effectiveness at 75% Heating Air Flow {dimensionless}
    ,                        !- Sensible Effectiveness at 100% Cooling Air Flow {dimensionless}
    ,                        !- Latent Effectiveness at 100% Cooling Air Flow {dimensionless}
    ,                        !- Sensible Effectiveness at 75% Cooling Air Flow {dimensionless}
    ,                        !- Latent Effectiveness at 75% Cooling Air Flow {dimensionless}
    ,                        !- Supply Air Inlet Node Name
    ,                        !- Supply Air Outlet Node Name
    ,                        !- Exhaust Air Inlet Node Name
    ,                        !- Exhaust Air Outlet Node Name
    ,                        !- Nominal Electric Power {W}
    No,                      !- Supply Air Outlet Temperature Control
    Plate,                   !- Heat Exchanger Type
    None,                    !- Frost Control Type
    1.7,                     !- Threshold Temperature {C}
    0.083,                   !- Initial Defrost Time Fraction {dimensionless}
    0.012,                   !- Rate of Defrost Time Fraction Increase {1/K}
    Yes;                     !- Economizer Lockout


!-   ===========  ALL OBJECTS IN CLASS: HEATEXCHANGER:DESICCANT:BALANCEDFLOW ===========

HeatExchanger:Desiccant:BalancedFlow,
    ,                        !- Name
    ,                        !- Availability Schedule Name
    ,                        !- Regeneration Air Inlet Node Name
    ,                        !- Regeneration Air Outlet Node Name
    ,                        !- Process Air Inlet Node Name
    ,                        !- Process Air Outlet Node Name
    HeatExchanger:Desiccant:BalancedFlow:PerformanceDataType1,  !- Heat Exchanger Performance Object Type
    ,                        !- Heat Exchanger Performance Name
    No;                      !- Economizer Lockout


!-   ===========  ALL OBJECTS IN CLASS: HEATEXCHANGER:DESICCANT:BALANCEDFLOW:PERFORMANCEDATATYPE1 ===========

HeatExchanger:Desiccant:BalancedFlow:PerformanceDataType1,
    ,                        !- Name
    ,                        !- Nominal Air Flow Rate {m3/s}
    ,                        !- Nominal Air Face Velocity {m/s}
    ,                        !- Nominal Electric Power {W}
    ,                        !- Temperature Equation Coefficient 1
    ,                        !- Temperature Equation Coefficient 2
    ,                        !- Temperature Equation Coefficient 3
    ,                        !- Temperature Equation Coefficient 4
    ,                        !- Temperature Equation Coefficient 5
    ,                        !- Temperature Equation Coefficient 6
    ,                        !- Temperature Equation Coefficient 7
    ,                        !- Temperature Equation Coefficient 8
    ,                        !- Minimum Regeneration Inlet Air Humidity Ratio for Temperature Equation {kgWater/kgDryAir}
    ,                        !- Maximum Regeneration Inlet Air Humidity Ratio for Temperature Equation {kgWater/kgDryAir}
    ,                        !- Minimum Regeneration Inlet Air Temperature for Temperature Equation {C}
    ,                        !- Maximum Regeneration Inlet Air Temperature for Temperature Equation {C}
    ,                        !- Minimum Process Inlet Air Humidity Ratio for Temperature Equation {kgWater/kgDryAir}
    ,                        !- Maximum Process Inlet Air Humidity Ratio for Temperature Equation {kgWater/kgDryAir}
    ,                        !- Minimum Process Inlet Air Temperature for Temperature Equation {C}
    ,                        !- Maximum Process Inlet Air Temperature for Temperature Equation {C}
    ,                        !- Minimum Regeneration Air Velocity for Temperature Equation {m/s}
    ,                        !- Maximum Regeneration Air Velocity for Temperature Equation {m/s}
    ,                        !- Minimum Regeneration Outlet Air Temperature for Temperature Equation {C}
    ,                        !- Maximum Regeneration Outlet Air Temperature for Temperature Equation {C}
    ,                        !- Minimum Regeneration Inlet Air Relative Humidity for Temperature Equation {percent}
    ,                        !- Maximum Regeneration Inlet Air Relative Humidity for Temperature Equation {percent}
    ,                        !- Minimum Process Inlet Air Relative Humidity for Temperature Equation {percent}
    ,                        !- Maximum Process Inlet Air Relative Humidity for Temperature Equation {percent}
    ,                        !- Humidity Ratio Equation Coefficient 1
    ,                        !- Humidity Ratio Equation Coefficient 2
    ,                        !- Humidity Ratio Equation Coefficient 3
    ,                        !- Humidity Ratio Equation Coefficient 4
    ,                        !- Humidity Ratio Equation Coefficient 5
    ,                        !- Humidity Ratio Equation Coefficient 6
    ,                        !- Humidity Ratio Equation Coefficient 7
    ,                        !- Humidity Ratio Equation Coefficient 8
    ,                        !- Minimum Regeneration Inlet Air Humidity Ratio for Humidity Ratio Equation {kgWater/kgDryAir}
    ,                        !- Maximum Regeneration Inlet Air Humidity Ratio for Humidity Ratio Equation {kgWater/kgDryAir}
    ,                        !- Minimum Regeneration Inlet Air Temperature for Humidity Ratio Equation {C}
    ,                        !- Maximum Regeneration Inlet Air Temperature for Humidity Ratio Equation {C}
    ,                        !- Minimum Process Inlet Air Humidity Ratio for Humidity Ratio Equation {kgWater/kgDryAir}
    ,                        !- Maximum Process Inlet Air Humidity Ratio for Humidity Ratio Equation {kgWater/kgDryAir}
    ,                        !- Minimum Process Inlet Air Temperature for Humidity Ratio Equation {C}
    ,                        !- Maximum Process Inlet Air Temperature for Humidity Ratio Equation {C}
    ,                        !- Minimum Regeneration Air Velocity for Humidity Ratio Equation {m/s}
    ,                        !- Maximum Regeneration Air Velocity for Humidity Ratio Equation {m/s}
    ,                        !- Minimum Regeneration Outlet Air Humidity Ratio for Humidity Ratio Equation {kgWater/kgDryAir}
    ,                        !- Maximum Regeneration Outlet Air Humidity Ratio for Humidity Ratio Equation {kgWater/kgDryAir}
    ,                        !- Minimum Regeneration Inlet Air Relative Humidity for Humidity Ratio Equation {percent}
    ,                        !- Maximum Regeneration Inlet Air Relative Humidity for Humidity Ratio Equation {percent}
    ,                        !- Minimum Process Inlet Air Relative Humidity for Humidity Ratio Equation {percent}
    ;                        !- Maximum Process Inlet Air Relative Humidity for Humidity Ratio Equation {percent}


!-   ===========  ALL OBJECTS IN CLASS: AIRLOOPHVAC:UNITARYSYSTEM ===========

AirLoopHVAC:UnitarySystem,
    ,                        !- Name
    Load,                    !- Control Type
    ,                        !- Controlling Zone or Thermostat Location
    None,                    !- Dehumidification Control Type
    ,                        !- Availability Schedule Name
    ,                        !- Air Inlet Node Name
    ,                        !- Air Outlet Node Name
    ,                        !- Supply Fan Object Type
    ,                        !- Supply Fan Name
    ,                        !- Fan Placement
    ,                        !- Supply Air Fan Operating Mode Schedule Name
    ,                        !- Heating Coil Object Type
    ,                        !- Heating Coil Name
    1,                       !- DX Heating Coil Sizing Ratio
    ,                        !- Cooling Coil Object Type
    ,                        !- Cooling Coil Name
    No,                      !- Use DOAS DX Cooling Coil
    2,                       !- Minimum Supply Air Temperature {C}
    SensibleOnlyLoadControl, !- Latent Load Control
    ,                        !- Supplemental Heating Coil Object Type
    ,                        !- Supplemental Heating Coil Name
    ,                        !- Cooling Supply Air Flow Rate Method
    ,                        !- Cooling Supply Air Flow Rate {m3/s}
    ,                        !- Cooling Supply Air Flow Rate Per Floor Area {m3/s-m2}
    ,                        !- Cooling Fraction of Autosized Cooling Supply Air Flow Rate
    ,                        !- Cooling Supply Air Flow Rate Per Unit of Capacity {m3/s-W}
    ,                        !- Heating Supply Air Flow Rate Method
    ,                        !- Heating Supply Air Flow Rate {m3/s}
    ,                        !- Heating Supply Air Flow Rate Per Floor Area {m3/s-m2}
    ,                        !- Heating Fraction of Autosized Heating Supply Air Flow Rate
    ,                        !- Heating Supply Air Flow Rate Per Unit of Capacity {m3/s-W}
    ,                        !- No Load Supply Air Flow Rate Method
    ,                        !- No Load Supply Air Flow Rate {m3/s}
    ,                        !- No Load Supply Air Flow Rate Per Floor Area {m3/s-m2}
    ,                        !- No Load Fraction of Autosized Cooling Supply Air Flow Rate
    ,                        !- No Load Fraction of Autosized Heating Supply Air Flow Rate
    ,                        !- No Load Supply Air Flow Rate Per Unit of Capacity During Cooling Operation {m3/s-W}
    ,                        !- No Load Supply Air Flow Rate Per Unit of Capacity During Heating Operation {m3/s-W}
    80,                      !- Maximum Supply Air Temperature {C}
    21,                      !- Maximum Outdoor Dry-Bulb Temperature for Supplemental Heater Operation {C}
    ,                        !- Outdoor Dry-Bulb Temperature Sensor Node Name
    2.5,                     !- Maximum Cycling Rate {cycles/hr}
    60,                      !- Heat Pump Time Constant {s}
    0.01,                    !- Fraction of On-Cycle Power Use
    60,                      !- Heat Pump Fan Delay Time {s}
    ,                        !- Ancillary On-Cycle Electric Power {W}
    ,                        !- Ancillary Off-Cycle Electric Power {W}
    ,                        !- Design Heat Recovery Water Flow Rate {m3/s}
    80;                      !- Maximum Temperature for Heat Recovery {C}


!-   ===========  ALL OBJECTS IN CLASS: UNITARYSYSTEMPERFORMANCE:MULTISPEED ===========

UnitarySystemPerformance:Multispeed,
    ,                        !- Name
    ,                        !- Number of Speeds for Heating
    ,                        !- Number of Speeds for Cooling
    No,                      !- Single Mode Operation
    1;                       !- No Load Supply Air Flow Rate Ratio


!-   ===========  ALL OBJECTS IN CLASS: AIRLOOPHVAC:UNITARY:FURNACE:HEATONLY ===========

AirLoopHVAC:Unitary:Furnace:HeatOnly,
    ,                        !- Name
    ,                        !- Availability Schedule Name
    ,                        !- Furnace Air Inlet Node Name
    ,                        !- Furnace Air Outlet Node Name
    ,                        !- Supply Air Fan Operating Mode Schedule Name
    80,                      !- Maximum Supply Air Temperature {C}
    ,                        !- Heating Supply Air Flow Rate {m3/s}
    ,                        !- Controlling Zone or Thermostat Location
    ,                        !- Supply Fan Object Type
    ,                        !- Supply Fan Name
    BlowThrough,             !- Fan Placement
    ,                        !- Heating Coil Object Type
    ;                        !- Heating Coil Name


!-   ===========  ALL OBJECTS IN CLASS: AIRLOOPHVAC:UNITARY:FURNACE:HEATCOOL ===========

AirLoopHVAC:Unitary:Furnace:HeatCool,
    ,                        !- Name
    ,                        !- Availability Schedule Name
    ,                        !- Furnace Air Inlet Node Name
    ,                        !- Furnace Air Outlet Node Name
    ,                        !- Supply Air Fan Operating Mode Schedule Name
    80,                      !- Maximum Supply Air Temperature {C}
    ,                        !- Cooling Supply Air Flow Rate {m3/s}
    ,                        !- Heating Supply Air Flow Rate {m3/s}
    ,                        !- No Load Supply Air Flow Rate {m3/s}
    ,                        !- Controlling Zone or Thermostat Location
    ,                        !- Supply Fan Object Type
    ,                        !- Supply Fan Name
    BlowThrough,             !- Fan Placement
    ,                        !- Heating Coil Object Type
    ,                        !- Heating Coil Name
    ,                        !- Cooling Coil Object Type
    ,                        !- Cooling Coil Name
    None;                    !- Dehumidification Control Type


!-   ===========  ALL OBJECTS IN CLASS: AIRLOOPHVAC:UNITARYHEATONLY ===========

AirLoopHVAC:UnitaryHeatOnly,
    ,                        !- Name
    ,                        !- Availability Schedule Name
    ,                        !- Unitary System Air Inlet Node Name
    ,                        !- Unitary System Air Outlet Node Name
    ,                        !- Supply Air Fan Operating Mode Schedule Name
    80,                      !- Maximum Supply Air Temperature {C}
    ,                        !- Heating Supply Air Flow Rate {m3/s}
    ,                        !- Controlling Zone or Thermostat Location
    ,                        !- Supply Fan Object Type
    ,                        !- Supply Fan Name
    BlowThrough,             !- Fan Placement
    ,                        !- Heating Coil Object Type
    ;                        !- Heating Coil Name


!-   ===========  ALL OBJECTS IN CLASS: AIRLOOPHVAC:UNITARYHEATCOOL ===========

AirLoopHVAC:UnitaryHeatCool,
    ,                        !- Name
    ,                        !- Availability Schedule Name
    ,                        !- Unitary System Air Inlet Node Name
    ,                        !- Unitary System Air Outlet Node Name
    ,                        !- Supply Air Fan Operating Mode Schedule Name
    80,                      !- Maximum Supply Air Temperature {C}
    ,                        !- Cooling Supply Air Flow Rate {m3/s}
    ,                        !- Heating Supply Air Flow Rate {m3/s}
    ,                        !- No Load Supply Air Flow Rate {m3/s}
    ,                        !- Controlling Zone or Thermostat Location
    ,                        !- Supply Fan Object Type
    ,                        !- Supply Fan Name
    BlowThrough,             !- Fan Placement
    ,                        !- Heating Coil Object Type
    ,                        !- Heating Coil Name
    ,                        !- Cooling Coil Object Type
    ,                        !- Cooling Coil Name
    None;                    !- Dehumidification Control Type


!-   ===========  ALL OBJECTS IN CLASS: AIRLOOPHVAC:UNITARYHEATPUMP:AIRTOAIR ===========

AirLoopHVAC:UnitaryHeatPump:AirToAir,
    ,                        !- Name
    ,                        !- Availability Schedule Name
    ,                        !- Air Inlet Node Name
    ,                        !- Air Outlet Node Name
    ,                        !- Cooling Supply Air Flow Rate {m3/s}
    ,                        !- Heating Supply Air Flow Rate {m3/s}
    ,                        !- No Load Supply Air Flow Rate {m3/s}
    ,                        !- Controlling Zone or Thermostat Location
    ,                        !- Supply Air Fan Object Type
    ,                        !- Supply Air Fan Name
    ,                        !- Heating Coil Object Type
    ,                        !- Heating Coil Name
    ,                        !- Cooling Coil Object Type
    ,                        !- Cooling Coil Name
    ,                        !- Supplemental Heating Coil Object Type
    ,                        !- Supplemental Heating Coil Name
    ,                        !- Maximum Supply Air Temperature from Supplemental Heater {C}
    21,                      !- Maximum Outdoor Dry-Bulb Temperature for Supplemental Heater Operation {C}
    BlowThrough,             !- Fan Placement
    ,                        !- Supply Air Fan Operating Mode Schedule Name
    None;                    !- Dehumidification Control Type


!-   ===========  ALL OBJECTS IN CLASS: AIRLOOPHVAC:UNITARYHEATPUMP:WATERTOAIR ===========

AirLoopHVAC:UnitaryHeatPump:WaterToAir,
    ,                        !- Name
    ,                        !- Availability Schedule Name
    ,                        !- Air Inlet Node Name
    ,                        !- Air Outlet Node Name
    ,                        !- Supply Air Flow Rate {m3/s}
    ,                        !- Controlling Zone or Thermostat Location
    ,                        !- Supply Air Fan Object Type
    ,                        !- Supply Air Fan Name
    ,                        !- Heating Coil Object Type
    ,                        !- Heating Coil Name
    0.001,                   !- Heating Convergence
    ,                        !- Cooling Coil Object Type
    ,                        !- Cooling Coil Name
    0.001,                   !- Cooling Convergence
    2.5,                     !- Maximum Cycling Rate {cycles/hr}
    60,                      !- Heat Pump Time Constant {s}
    0.01,                    !- Fraction of On-Cycle Power Use
    60,                      !- Heat Pump Fan Delay Time {s}
    ,                        !- Supplemental Heating Coil Object Type
    ,                        !- Supplemental Heating Coil Name
    ,                        !- Maximum Supply Air Temperature from Supplemental Heater {C}
    21,                      !- Maximum Outdoor Dry-Bulb Temperature for Supplemental Heater Operation {C}
    ,                        !- Outdoor Dry-Bulb Temperature Sensor Node Name
    BlowThrough,             !- Fan Placement
    ,                        !- Supply Air Fan Operating Mode Schedule Name
    None,                    !- Dehumidification Control Type
    Cycling;                 !- Heat Pump Coil Water Flow Mode


!-   ===========  ALL OBJECTS IN CLASS: AIRLOOPHVAC:UNITARYHEATCOOL:VAVCHANGEOVERBYPASS ===========

AirLoopHVAC:UnitaryHeatCool:VAVChangeoverBypass,
    ,                        !- Name
    ,                        !- Availability Schedule Name
    ,                        !- Cooling Supply Air Flow Rate {m3/s}
    ,                        !- Heating Supply Air Flow Rate {m3/s}
    ,                        !- No Load Supply Air Flow Rate {m3/s}
    ,                        !- Cooling Outdoor Air Flow Rate {m3/s}
    ,                        !- Heating Outdoor Air Flow Rate {m3/s}
    ,                        !- No Load Outdoor Air Flow Rate {m3/s}
    ,                        !- Outdoor Air Flow Rate Multiplier Schedule Name
    ,                        !- Air Inlet Node Name
    ,                        !- Bypass Duct Mixer Node Name
    ,                        !- Bypass Duct Splitter Node Name
    ,                        !- Air Outlet Node Name
    ,                        !- Outdoor Air Mixer Object Type
    ,                        !- Outdoor Air Mixer Name
    ,                        !- Supply Air Fan Object Type
    ,                        !- Supply Air Fan Name
    ,                        !- Supply Air Fan Placement
    ,                        !- Supply Air Fan Operating Mode Schedule Name
    ,                        !- Cooling Coil Object Type
    ,                        !- Cooling Coil Name
    ,                        !- Heating Coil Object Type
    ,                        !- Heating Coil Name
    ZonePriority,            !- Priority Control Mode
    8,                       !- Minimum Outlet Air Temperature During Cooling Operation {C}
    50,                      !- Maximum Outlet Air Temperature During Heating Operation {C}
    None,                    !- Dehumidification Control Type
    ,                        !- Plenum or Mixer Inlet Node Name
    0.25;                    !- Minimum Runtime Before Operating Mode Change {hr}


!-   ===========  ALL OBJECTS IN CLASS: AIRLOOPHVAC:UNITARYHEATPUMP:AIRTOAIR:MULTISPEED ===========

AirLoopHVAC:UnitaryHeatPump:AirToAir:MultiSpeed,
    ,                        !- Name
    ,                        !- Availability Schedule Name
    ,                        !- Air Inlet Node Name
    ,                        !- Air Outlet Node Name
    ,                        !- Controlling Zone or Thermostat Location
    ,                        !- Supply Air Fan Object Type
    ,                        !- Supply Air Fan Name
    ,                        !- Supply Air Fan Placement
    ,                        !- Supply Air Fan Operating Mode Schedule Name
    ,                        !- Heating Coil Object Type
    ,                        !- Heating Coil Name
    -8,                      !- Minimum Outdoor Dry-Bulb Temperature for Compressor Operation {C}
    ,                        !- Cooling Coil Object Type
    ,                        !- Cooling Coil Name
    ,                        !- Supplemental Heating Coil Object Type
    ,                        !- Supplemental Heating Coil Name
    ,                        !- Maximum Supply Air Temperature from Supplemental Heater {C}
    21,                      !- Maximum Outdoor Dry-Bulb Temperature for Supplemental Heater Operation {C}
    ,                        !- Auxiliary On-Cycle Electric Power {W}
    ,                        !- Auxiliary Off-Cycle Electric Power {W}
    ,                        !- Design Heat Recovery Water Flow Rate {m3/s}
    80,                      !- Maximum Temperature for Heat Recovery {C}
    ,                        !- Heat Recovery Water Inlet Node Name
    ,                        !- Heat Recovery Water Outlet Node Name
    ,                        !- No Load Supply Air Flow Rate {m3/s}
    ,                        !- Number of Speeds for Heating
    ,                        !- Number of Speeds for Cooling
    ,                        !- Heating Speed 1 Supply Air Flow Rate {m3/s}
    ,                        !- Heating Speed 2 Supply Air Flow Rate {m3/s}
    ,                        !- Heating Speed 3 Supply Air Flow Rate {m3/s}
    ;                        !- Heating Speed 4 Supply Air Flow Rate {m3/s}


!-   ===========  ALL OBJECTS IN CLASS: AIRCONDITIONER:VARIABLEREFRIGERANTFLOW ===========

AirConditioner:VariableRefrigerantFlow,
    ,                        !- Heat Pump Name
    ,                        !- Availability Schedule Name
    ,                        !- Gross Rated Total Cooling Capacity {W}
    3.3,                     !- Gross Rated Cooling COP {W/W}
    -6,                      !- Minimum Condenser Inlet Node Temperature in Cooling Mode {C}
    43,                      !- Maximum Condenser Inlet Node Temperature in Cooling Mode {C}
    ,                        !- Cooling Capacity Ratio Modifier Function of Low Temperature Curve Name
    ,                        !- Cooling Capacity Ratio Boundary Curve Name
    ,                        !- Cooling Capacity Ratio Modifier Function of High Temperature Curve Name
    ,                        !- Cooling Energy Input Ratio Modifier Function of Low Temperature Curve Name
    ,                        !- Cooling Energy Input Ratio Boundary Curve Name
    ,                        !- Cooling Energy Input Ratio Modifier Function of High Temperature Curve Name
    ,                        !- Cooling Energy Input Ratio Modifier Function of Low Part-Load Ratio Curve Name
    ,                        !- Cooling Energy Input Ratio Modifier Function of High Part-Load Ratio Curve Name
    ,                        !- Cooling Combination Ratio Correction Factor Curve Name
    ,                        !- Cooling Part-Load Fraction Correlation Curve Name
    ,                        !- Gross Rated Heating Capacity {W}
    1,                       !- Rated Heating Capacity Sizing Ratio {W/W}
    3.4,                     !- Gross Rated Heating COP {W/W}
    -20,                     !- Minimum Condenser Inlet Node Temperature in Heating Mode {C}
    16,                      !- Maximum Condenser Inlet Node Temperature in Heating Mode {C}
    ,                        !- Heating Capacity Ratio Modifier Function of Low Temperature Curve Name
    ,                        !- Heating Capacity Ratio Boundary Curve Name
    ,                        !- Heating Capacity Ratio Modifier Function of High Temperature Curve Name
    ,                        !- Heating Energy Input Ratio Modifier Function of Low Temperature Curve Name
    ,                        !- Heating Energy Input Ratio Boundary Curve Name
    ,                        !- Heating Energy Input Ratio Modifier Function of High Temperature Curve Name
    WetBulbTemperature,      !- Heating Performance Curve Outdoor Temperature Type
    ,                        !- Heating Energy Input Ratio Modifier Function of Low Part-Load Ratio Curve Name
    ,                        !- Heating Energy Input Ratio Modifier Function of High Part-Load Ratio Curve Name
    ,                        !- Heating Combination Ratio Correction Factor Curve Name
    ,                        !- Heating Part-Load Fraction Correlation Curve Name
    0.15,                    !- Minimum Heat Pump Part-Load Ratio {dimensionless}
    ,                        !- Zone Name for Master Thermostat Location
    MasterThermostatPriority,!- Master Thermostat Priority Control Type
    ,                        !- Thermostat Priority Schedule Name
    ,                        !- Zone Terminal Unit List Name
    No,                      !- Heat Pump Waste Heat Recovery
    ,                        !- Equivalent Piping Length used for Piping Correction Factor in Cooling Mode {m}
    ,                        !- Vertical Height used for Piping Correction Factor {m}
    ,                        !- Piping Correction Factor for Length in Cooling Mode Curve Name
    ,                        !- Piping Correction Factor for Height in Cooling Mode Coefficient {1/m}
    ,                        !- Equivalent Piping Length used for Piping Correction Factor in Heating Mode {m}
    ,                        !- Piping Correction Factor for Length in Heating Mode Curve Name
    ,                        !- Piping Correction Factor for Height in Heating Mode Coefficient {1/m}
    33,                      !- Crankcase Heater Power per Compressor {W}
    2,                       !- Number of Compressors {dimensionless}
    0.5,                     !- Ratio of Compressor Size to Total Compressor Capacity {W/W}
    5,                       !- Maximum Outdoor Dry-Bulb Temperature for Crankcase Heater {C}
    Resistive,               !- Defrost Strategy
    Timed,                   !- Defrost Control
    ,                        !- Defrost Energy Input Ratio Modifier Function of Temperature Curve Name
    0.058333,                !- Defrost Time Period Fraction {dimensionless}
    ,                        !- Resistive Defrost Heater Capacity {W}
    5,                       !- Maximum Outdoor Dry-bulb Temperature for Defrost Operation {C}
    AirCooled,               !- Condenser Type
    ,                        !- Condenser Inlet Node Name
    ,                        !- Condenser Outlet Node Name
    ,                        !- Water Condenser Volume Flow Rate {m3/s}
    0.9,                     !- Evaporative Condenser Effectiveness {dimensionless}
    ,                        !- Evaporative Condenser Air Flow Rate {m3/s}
    ,                        !- Evaporative Condenser Pump Rated Power Consumption {W}
    ,                        !- Supply Water Storage Tank Name
    ,                        !- Basin Heater Capacity {W/K}
    2,                       !- Basin Heater Setpoint Temperature {C}
    ,                        !- Basin Heater Operating Schedule Name
    Electricity,             !- Fuel Type
    ,                        !- Minimum Condenser Inlet Node Temperature in Heat Recovery Mode {C}
    ,                        !- Maximum Condenser Inlet Node Temperature in Heat Recovery Mode {C}
    ,                        !- Heat Recovery Cooling Capacity Modifier Curve Name
    0.5,                     !- Initial Heat Recovery Cooling Capacity Fraction {W/W}
    0.15,                    !- Heat Recovery Cooling Capacity Time Constant {hr}
    ,                        !- Heat Recovery Cooling Energy Modifier Curve Name
    1,                       !- Initial Heat Recovery Cooling Energy Fraction {W/W}
    ,                        !- Heat Recovery Cooling Energy Time Constant {hr}
    ,                        !- Heat Recovery Heating Capacity Modifier Curve Name
    1,                       !- Initial Heat Recovery Heating Capacity Fraction {W/W}
    0.15,                    !- Heat Recovery Heating Capacity Time Constant {hr}
    ,                        !- Heat Recovery Heating Energy Modifier Curve Name
    1;                       !- Initial Heat Recovery Heating Energy Fraction {W/W}


!-   ===========  ALL OBJECTS IN CLASS: AIRCONDITIONER:VARIABLEREFRIGERANTFLOW:FLUIDTEMPERATURECONTROL ===========

AirConditioner:VariableRefrigerantFlow:FluidTemperatureControl,
    ,                        !- Heat Pump Name
    ,                        !- Availability Schedule Name
    ,                        !- Zone Terminal Unit List Name
    R410A,                   !- Refrigerant Type
    40000,                   !- Rated Evaporative Capacity {W}
    0.35,                    !- Rated Compressor Power Per Unit of Rated Evaporative Capacity {dimensionless}
    -6,                      !- Minimum Outdoor Air Temperature in Cooling Mode {C}
    43,                      !- Maximum Outdoor Air Temperature in Cooling Mode {C}
    -20,                     !- Minimum Outdoor Air Temperature in Heating Mode {C}
    16,                      !- Maximum Outdoor Air Temperature in Heating Mode {C}
    3,                       !- Reference Outdoor Unit Superheating {deltaC}
    5,                       !- Reference Outdoor Unit Subcooling {deltaC}
    VariableTemp,            !- Refrigerant Temperature Control Algorithm for Indoor Unit
    6,                       !- Reference Evaporating Temperature for Indoor Unit {C}
    44,                      !- Reference Condensing Temperature for Indoor Unit {C}
    4,                       !- Variable Evaporating Temperature Minimum for Indoor Unit {C}
    13,                      !- Variable Evaporating Temperature Maximum for Indoor Unit {C}
    42,                      !- Variable Condensing Temperature Minimum for Indoor Unit {C}
    46,                      !- Variable Condensing Temperature Maximum for Indoor Unit {C}
    0.00425,                 !- Outdoor Unit Fan Power Per Unit of Rated Evaporative Capacity {dimensionless}
    0.000075,                !- Outdoor Unit Fan Flow Rate Per Unit of Rated Evaporative Capacity {m3/s-W}
    ,                        !- Outdoor Unit Evaporating Temperature Function of Superheating Curve Name
    ,                        !- Outdoor Unit Condensing Temperature Function of Subcooling Curve Name
    0.0762,                  !- Diameter of Main Pipe Connecting Outdoor Unit to the First Branch Joint {m}
    30,                      !- Length of Main Pipe Connecting Outdoor Unit to the First Branch Joint {m}
    36,                      !- Equivalent Length of Main Pipe Connecting Outdoor Unit to the First Branch Joint {m}
    5,                       !- Height Difference Between Outdoor Unit and Indoor Units {m}
    0.02,                    !- Main Pipe Insulation Thickness {m}
    0.032,                   !- Main Pipe Insulation Thermal Conductivity {W/m-K}
    33,                      !- Crankcase Heater Power per Compressor {W}
    2,                       !- Number of Compressors {dimensionless}
    0.5,                     !- Ratio of Compressor Size to Total Compressor Capacity {W/W}
    5,                       !- Maximum Outdoor Dry-Bulb Temperature for Crankcase Heater {C}
    Resistive,               !- Defrost Strategy
    Timed,                   !- Defrost Control
    ,                        !- Defrost Energy Input Ratio Modifier Function of Temperature Curve Name
    0.058333,                !- Defrost Time Period Fraction
    ,                        !- Resistive Defrost Heater Capacity {W}
    5,                       !- Maximum Outdoor Dry-bulb Temperature for Defrost Operation {C}
    4500000,                 !- Compressor maximum delta Pressure {Pa}
    2;                       !- Number of Compressor Loading Index Entries


!-   ===========  ALL OBJECTS IN CLASS: AIRCONDITIONER:VARIABLEREFRIGERANTFLOW:FLUIDTEMPERATURECONTROL:HR ===========

AirConditioner:VariableRefrigerantFlow:FluidTemperatureControl:HR,
    ,                        !- Name
    ,                        !- Availability Schedule Name
    ,                        !- Zone Terminal Unit List Name
    R410A,                   !- Refrigerant Type
    40000,                   !- Rated Evaporative Capacity {W}
    0.35,                    !- Rated Compressor Power Per Unit of Rated Evaporative Capacity {dimensionless}
    -6,                      !- Minimum Outdoor Air Temperature in Cooling Only Mode {C}
    43,                      !- Maximum Outdoor Air Temperature in Cooling Only Mode {C}
    -20,                     !- Minimum Outdoor Air Temperature in Heating Only Mode {C}
    16,                      !- Maximum Outdoor Air Temperature in Heating Only Mode {C}
    -20,                     !- Minimum Outdoor Temperature in Heat Recovery Mode {C}
    43,                      !- Maximum Outdoor Temperature in Heat Recovery Mode {C}
    VariableTemp,            !- Refrigerant Temperature Control Algorithm for Indoor Unit
    6,                       !- Reference Evaporating Temperature for Indoor Unit {C}
    44,                      !- Reference Condensing Temperature for Indoor Unit {C}
    4,                       !- Variable Evaporating Temperature Minimum for Indoor Unit {C}
    13,                      !- Variable Evaporating Temperature Maximum for Indoor Unit {C}
    42,                      !- Variable Condensing Temperature Minimum for Indoor Unit {C}
    46,                      !- Variable Condensing Temperature Maximum for Indoor Unit {C}
    3,                       !- Outdoor Unit Evaporator Reference Superheating {deltaC}
    5,                       !- Outdoor Unit Condenser Reference Subcooling {deltaC}
    0.4,                     !- Outdoor Unit Evaporator Rated Bypass Factor {dimensionless}
    0.2,                     !- Outdoor Unit Condenser Rated Bypass Factor {dimensionless}
    5,                       !- Difference between Outdoor Unit Evaporating Temperature and Outdoor Air Temperature in Heat Recovery Mode {deltaC}
    0.3,                     !- Outdoor Unit Heat Exchanger Capacity Ratio {dimensionless}
    0.00425,                 !- Outdoor Unit Fan Power Per Unit of Rated Evaporative Capacity {dimensionless}
    0.000075,                !- Outdoor Unit Fan Flow Rate Per Unit of Rated Evaporative Capacity {m3/s-W}
    ,                        !- Outdoor Unit Evaporating Temperature Function of Superheating Curve Name
    ,                        !- Outdoor Unit Condensing Temperature Function of Subcooling Curve Name
    0.0762,                  !- Diameter of Main Pipe for Suction Gas {m}
    0.0762,                  !- Diameter of Main Pipe for Discharge Gas {m}
    30,                      !- Length of Main Pipe Connecting Outdoor Unit to the First Branch Joint {m}
    36,                      !- Equivalent Length of Main Pipe Connecting Outdoor Unit to the First Branch Joint {m}
    5,                       !- Height Difference Between Outdoor Unit and Indoor Units {m}
    0.02,                    !- Main Pipe Insulation Thickness {m}
    0.032,                   !- Main Pipe Insulation Thermal Conductivity {W/m-K}
    33,                      !- Crankcase Heater Power per Compressor {W}
    2,                       !- Number of Compressors {dimensionless}
    0.5,                     !- Ratio of Compressor Size to Total Compressor Capacity {W/W}
    5,                       !- Maximum Outdoor Dry-Bulb Temperature for Crankcase Heater {C}
    Resistive,               !- Defrost Strategy
    Timed,                   !- Defrost Control
    ,                        !- Defrost Energy Input Ratio Modifier Function of Temperature Curve Name
    0.058333,                !- Defrost Time Period Fraction
    ,                        !- Resistive Defrost Heater Capacity {W}
    5,                       !- Maximum Outdoor Dry-bulb Temperature for Defrost Operation {C}
    1,                       !- Initial Heat Recovery Cooling Capacity Fraction {W/W}
    ,                        !- Heat Recovery Cooling Capacity Time Constant {hr}
    1,                       !- Initial Heat Recovery Cooling Energy Fraction {W/W}
    ,                        !- Heat Recovery Cooling Energy Time Constant {hr}
    1,                       !- Initial Heat Recovery Heating Capacity Fraction {W/W}
    ,                        !- Heat Recovery Heating Capacity Time Constant {hr}
    1,                       !- Initial Heat Recovery Heating Energy Fraction {W/W}
    ,                        !- Heat Recovery Heating Energy Time Constant {hr}
    4500000,                 !- Compressor maximum delta Pressure {Pa}
    0.95,                    !- Compressor Inverter Efficiency {dimensionless}
    1,                       !- Compressor Evaporative Capacity Correction Factor {dimensionless}
    2;                       !- Number of Compressor Loading Index Entries


!-   ===========  ALL OBJECTS IN CLASS: ZONETERMINALUNITLIST ===========

ZoneTerminalUnitList,
    ,                        !- Zone Terminal Unit List Name
    ;                        !- Zone Terminal Unit Name 1


!-   ===========  ALL OBJECTS IN CLASS: CONTROLLER:WATERCOIL ===========

Controller:WaterCoil,
    ,                        !- Name
    ,                        !- Control Variable
    ,                        !- Action
    ,                        !- Actuator Variable
    ,                        !- Sensor Node Name
    ,                        !- Actuator Node Name
    autosize,                !- Controller Convergence Tolerance {deltaC}
    autosize,                !- Maximum Actuated Flow {m3/s}
    ;                        !- Minimum Actuated Flow {m3/s}


!-   ===========  ALL OBJECTS IN CLASS: CONTROLLER:OUTDOORAIR ===========

Controller:OutdoorAir,
    ,                        !- Name
    ,                        !- Relief Air Outlet Node Name
    ,                        !- Return Air Node Name
    ,                        !- Mixed Air Node Name
    ,                        !- Actuator Node Name
    ,                        !- Minimum Outdoor Air Flow Rate {m3/s}
    ,                        !- Maximum Outdoor Air Flow Rate {m3/s}
    NoEconomizer,            !- Economizer Control Type
    ModulateFlow,            !- Economizer Control Action Type
    ,                        !- Economizer Maximum Limit Dry-Bulb Temperature {C}
    ,                        !- Economizer Maximum Limit Enthalpy {J/kg}
    ,                        !- Economizer Maximum Limit Dewpoint Temperature {C}
    ,                        !- Electronic Enthalpy Limit Curve Name
    ,                        !- Economizer Minimum Limit Dry-Bulb Temperature {C}
    NoLockout,               !- Lockout Type
    ProportionalMinimum,     !- Minimum Limit Type
    ,                        !- Minimum Outdoor Air Schedule Name
    ,                        !- Minimum Fraction of Outdoor Air Schedule Name
    ,                        !- Maximum Fraction of Outdoor Air Schedule Name
    ,                        !- Mechanical Ventilation Controller Name
    ,                        !- Time of Day Economizer Control Schedule Name
    No,                      !- High Humidity Control
    ,                        !- Humidistat Control Zone Name
    1,                       !- High Humidity Outdoor Air Flow Ratio
    Yes,                     !- Control High Indoor Humidity Based on Outdoor Humidity Ratio
    BypassWhenWithinEconomizerLimits;  !- Heat Recovery Bypass Control Type


!-   ===========  ALL OBJECTS IN CLASS: CONTROLLER:MECHANICALVENTILATION ===========

Controller:MechanicalVentilation,
    ,                        !- Name
    ,                        !- Availability Schedule Name
    No,                      !- Demand Controlled Ventilation
    Standard62.1VentilationRateProcedure,  !- System Outdoor Air Method
    1,                       !- Zone Maximum Outdoor Air Fraction {dimensionless}
    ,                        !- Zone or ZoneList 1 Name
    ,                        !- Design Specification Outdoor Air Object Name 1
    ;                        !- Design Specification Zone Air Distribution Object Name 1


!-   ===========  ALL OBJECTS IN CLASS: AIRLOOPHVAC:CONTROLLERLIST ===========

AirLoopHVAC:ControllerList,
    ;                        !- Name


!-   ===========  ALL OBJECTS IN CLASS: AIRLOOPHVAC ===========

AirLoopHVAC,
    ,                        !- Name
    ,                        !- Controller List Name
    ,                        !- Availability Manager List Name
    ,                        !- Design Supply Air Flow Rate {m3/s}
    ,                        !- Branch List Name
    ,                        !- Connector List Name
    ,                        !- Supply Side Inlet Node Name
    ,                        !- Demand Side Outlet Node Name
    ,                        !- Demand Side Inlet Node Names
    ,                        !- Supply Side Outlet Node Names
    1;                       !- Design Return Air Flow Fraction of Supply Air Flow


!-   ===========  ALL OBJECTS IN CLASS: AIRLOOPHVAC:OUTDOORAIRSYSTEM:EQUIPMENTLIST ===========

AirLoopHVAC:OutdoorAirSystem:EquipmentList,
    ;                        !- Name


!-   ===========  ALL OBJECTS IN CLASS: AIRLOOPHVAC:OUTDOORAIRSYSTEM ===========

AirLoopHVAC:OutdoorAirSystem,
    ,                        !- Name
    ,                        !- Controller List Name
    ;                        !- Outdoor Air Equipment List Name


!-   ===========  ALL OBJECTS IN CLASS: OUTDOORAIR:MIXER ===========

OutdoorAir:Mixer,
    ;                        !- Name


!-   ===========  ALL OBJECTS IN CLASS: AIRLOOPHVAC:ZONESPLITTER ===========

AirLoopHVAC:ZoneSplitter,
    ;                        !- Name


!-   ===========  ALL OBJECTS IN CLASS: AIRLOOPHVAC:SUPPLYPLENUM ===========

AirLoopHVAC:SupplyPlenum,
    ;                        !- Name


!-   ===========  ALL OBJECTS IN CLASS: AIRLOOPHVAC:SUPPLYPATH ===========

AirLoopHVAC:SupplyPath,
    ;                        !- Name


!-   ===========  ALL OBJECTS IN CLASS: AIRLOOPHVAC:ZONEMIXER ===========

AirLoopHVAC:ZoneMixer,
    ;                        !- Name


!-   ===========  ALL OBJECTS IN CLASS: AIRLOOPHVAC:RETURNPLENUM ===========

AirLoopHVAC:ReturnPlenum,
    ;                        !- Name


!-   ===========  ALL OBJECTS IN CLASS: AIRLOOPHVAC:RETURNPATH ===========

AirLoopHVAC:ReturnPath,
    ;                        !- Name


!-   ===========  ALL OBJECTS IN CLASS: AIRLOOPHVAC:EXHAUSTSYSTEM ===========

AirLoopHVAC:ExhaustSystem,
    ,                        !- Name
    ,                        !- Zone Mixer Name
    ,                        !- Fan Object Type
    ;                        !- Fan Name


!-   ===========  ALL OBJECTS IN CLASS: AIRLOOPHVAC:DEDICATEDOUTDOORAIRSYSTEM ===========

AirLoopHVAC:DedicatedOutdoorAirSystem,
    ,                        !- Name
    ,                        !- AirLoopHVAC:OutdoorAirSystem Name
    ,                        !- Availability Schedule Name
    ,                        !- AirLoopHVAC:Mixer Name
    ,                        !- AirLoopHVAC:Splitter Name
    ,                        !- Preheat Design Temperature {C}
    ,                        !- Preheat Design Humidity Ratio {kgWater/kgDryAir}
    ,                        !- Precool Design Temperature {C}
    ,                        !- Precool Design Humidity Ratio {kgWater/kgDryAir}
    ,                        !- Number of AirLoopHVAC
    ;                        !- AirLoopHVAC 1 Name


!-   ===========  ALL OBJECTS IN CLASS: AIRLOOPHVAC:MIXER ===========

AirLoopHVAC:Mixer,
    ;                        !- Name


!-   ===========  ALL OBJECTS IN CLASS: AIRLOOPHVAC:SPLITTER ===========

AirLoopHVAC:Splitter,
    ;                        !- Name


!-   ===========  ALL OBJECTS IN CLASS: BRANCH ===========

Branch,
    ;                        !- Name


!-   ===========  ALL OBJECTS IN CLASS: BRANCHLIST ===========

BranchList,
    ;                        !- Name


!-   ===========  ALL OBJECTS IN CLASS: CONNECTOR:SPLITTER ===========

Connector:Splitter,
    ,                        !- Name
    ,                        !- Inlet Branch Name
    ;                        !- Outlet Branch 1 Name


!-   ===========  ALL OBJECTS IN CLASS: CONNECTOR:MIXER ===========

Connector:Mixer,
    ,                        !- Name
    ,                        !- Outlet Branch Name
    ;                        !- Inlet Branch 1 Name


!-   ===========  ALL OBJECTS IN CLASS: CONNECTORLIST ===========

ConnectorList,
    ;                        !- Name


!-   ===========  ALL OBJECTS IN CLASS: NODELIST ===========

NodeList,
    ,                        !- Name
    ;                        !- Node 1 Name


!-   ===========  ALL OBJECTS IN CLASS: OUTDOORAIR:NODE ===========

OutdoorAir:Node,
    ,                        !- Name
    -1,                      !- Height Above Ground {m}
    ,                        !- Drybulb Temperature Schedule Name
    ,                        !- Wetbulb Temperature Schedule Name
    ,                        !- Wind Speed Schedule Name
    ,                        !- Wind Direction Schedule Name
    ,                        !- Wind Pressure Coefficient Curve Name
    No,                      !- Symmetric Wind Pressure Coefficient Curve
    Absolute;                !- Wind Angle Type


!-   ===========  ALL OBJECTS IN CLASS: OUTDOORAIR:NODELIST ===========

OutdoorAir:NodeList,
    ;                        !- Node or NodeList Name 1


!-   ===========  ALL OBJECTS IN CLASS: PIPE:ADIABATIC ===========

Pipe:Adiabatic,
    ;                        !- Name


!-   ===========  ALL OBJECTS IN CLASS: PIPE:ADIABATIC:STEAM ===========

Pipe:Adiabatic:Steam,
    ;                        !- Name


!-   ===========  ALL OBJECTS IN CLASS: PIPE:INDOOR ===========

Pipe:Indoor,
    ,                        !- Name
    ,                        !- Construction Name
    ,                        !- Fluid Inlet Node Name
    ,                        !- Fluid Outlet Node Name
    Zone;                    !- Environment Type


!-   ===========  ALL OBJECTS IN CLASS: PIPE:OUTDOOR ===========

Pipe:Outdoor,
    ;                        !- Name


!-   ===========  ALL OBJECTS IN CLASS: PIPE:UNDERGROUND ===========

Pipe:Underground,
    ;                        !- Name


!-   ===========  ALL OBJECTS IN CLASS: PIPINGSYSTEM:UNDERGROUND:DOMAIN ===========

PipingSystem:Underground:Domain,
    ,                        !- Name
    ,                        !- Xmax {m}
    ,                        !- Ymax {m}
    ,                        !- Zmax {m}
    4,                       !- X-Direction Mesh Density Parameter
    ,                        !- X-Direction Mesh Type
    1.3,                     !- X-Direction Geometric Coefficient
    4,                       !- Y-Direction Mesh Density Parameter
    ,                        !- Y-Direction Mesh Type
    1.3,                     !- Y-Direction Geometric Coefficient
    4,                       !- Z-Direction Mesh Density Parameter
    ,                        !- Z-Direction Mesh Type
    1.3,                     !- Z-Direction Geometric Coefficient
    ,                        !- Soil Thermal Conductivity {W/m-K}
    ,                        !- Soil Density {kg/m3}
    ,                        !- Soil Specific Heat {J/kg-K}
    30,                      !- Soil Moisture Content Volume Fraction {percent}
    50,                      !- Soil Moisture Content Volume Fraction at Saturation {percent}
    ,                        !- Undisturbed Ground Temperature Model Type
    ,                        !- Undisturbed Ground Temperature Model Name
    No,                      !- This Domain Includes Basement Surface Interaction
    ,                        !- Width of Basement Floor in Ground Domain {m}
    ,                        !- Depth of Basement Wall In Ground Domain {m}
    ,                        !- Shift Pipe X Coordinates By Basement Width
    ,                        !- Name of Basement Wall Boundary Condition Model
    ,                        !- Name of Basement Floor Boundary Condition Model
    0.001,                   !- Convergence Criterion for the Outer Cartesian Domain Iteration Loop {deltaC}
    500,                     !- Maximum Iterations in the Outer Cartesian Domain Iteration Loop
    0.4,                     !- Evapotranspiration Ground Cover Parameter
    ,                        !- Number of Pipe Circuits Entered for this Domain
    ;                        !- Pipe Circuit 1


!-   ===========  ALL OBJECTS IN CLASS: PIPINGSYSTEM:UNDERGROUND:PIPECIRCUIT ===========

PipingSystem:Underground:PipeCircuit,
    ,                        !- Name
    ,                        !- Pipe Thermal Conductivity {W/m-K}
    ,                        !- Pipe Density {kg/m3}
    ,                        !- Pipe Specific Heat {J/kg-K}
    ,                        !- Pipe Inner Diameter {m}
    ,                        !- Pipe Outer Diameter {m}
    ,                        !- Design Flow Rate {m3/s}
    ,                        !- Circuit Inlet Node
    ,                        !- Circuit Outlet Node
    0.001,                   !- Convergence Criterion for the Inner Radial Iteration Loop {deltaC}
    500,                     !- Maximum Iterations in the Inner Radial Iteration Loop
    3,                       !- Number of Soil Nodes in the Inner Radial Near Pipe Mesh Region
    ,                        !- Radial Thickness of Inner Radial Near Pipe Mesh Region
    ,                        !- Number of Pipe Segments Entered for this Pipe Circuit
    ;                        !- Pipe Segment 1


!-   ===========  ALL OBJECTS IN CLASS: PIPINGSYSTEM:UNDERGROUND:PIPESEGMENT ===========

PipingSystem:Underground:PipeSegment,
    ,                        !- Name
    ,                        !- X Position {m}
    ,                        !- Y Position {m}
    ;                        !- Flow Direction


!-   ===========  ALL OBJECTS IN CLASS: DUCT ===========

Duct,
    ;                        !- Name


!-   ===========  ALL OBJECTS IN CLASS: PUMP:VARIABLESPEED ===========

Pump:VariableSpeed,
    ,                        !- Name
    ,                        !- Inlet Node Name
    ,                        !- Outlet Node Name
    ,                        !- Design Maximum Flow Rate {m3/s}
    179352,                  !- Design Pump Head {Pa}
    ,                        !- Design Power Consumption {W}
    0.9,                     !- Motor Efficiency
    ,                        !- Fraction of Motor Inefficiencies to Fluid Stream
    ,                        !- Coefficient 1 of the Part Load Performance Curve
    1,                       !- Coefficient 2 of the Part Load Performance Curve
    ,                        !- Coefficient 3 of the Part Load Performance Curve
    ,                        !- Coefficient 4 of the Part Load Performance Curve
    autosize,                !- Design Minimum Flow Rate {m3/s}
    Continuous,              !- Pump Control Type
    ,                        !- Pump Flow Rate Schedule Name
    ,                        !- Pump Curve Name
    ,                        !- Impeller Diameter {m}
    ,                        !- VFD Control Type
    ,                        !- Pump RPM Schedule Name
    ,                        !- Minimum Pressure Schedule {Pa}
    ,                        !- Maximum Pressure Schedule {Pa}
    ,                        !- Minimum RPM Schedule {rev/min}
    ,                        !- Maximum RPM Schedule {rev/min}
    ,                        !- Zone Name
    ,                        !- Skin Loss Radiative Fraction
    PowerPerFlowPerPressure, !- Design Power Sizing Method
    348701.1,                !- Design Electric Power per Unit Flow Rate {W/(m3/s)}
    1.282051282,             !- Design Shaft Power per Unit Flow Rate per Unit Head {W/((m3/s)-Pa)}
    ,                        !- Design Minimum Flow Rate Fraction
    General;                 !- End-Use Subcategory


!-   ===========  ALL OBJECTS IN CLASS: PUMP:CONSTANTSPEED ===========

Pump:ConstantSpeed,
    ,                        !- Name
    ,                        !- Inlet Node Name
    ,                        !- Outlet Node Name
    ,                        !- Design Flow Rate {m3/s}
    179352,                  !- Design Pump Head {Pa}
    ,                        !- Design Power Consumption {W}
    0.9,                     !- Motor Efficiency
    ,                        !- Fraction of Motor Inefficiencies to Fluid Stream
    Continuous,              !- Pump Control Type
    ,                        !- Pump Flow Rate Schedule Name
    ,                        !- Pump Curve Name
    ,                        !- Impeller Diameter {m}
    ,                        !- Rotational Speed {rev/min}
    ,                        !- Zone Name
    ,                        !- Skin Loss Radiative Fraction
    PowerPerFlowPerPressure, !- Design Power Sizing Method
    348701.1,                !- Design Electric Power per Unit Flow Rate {W/(m3/s)}
    1.282051282,             !- Design Shaft Power per Unit Flow Rate per Unit Head {W/((m3/s)-Pa)}
    General;                 !- End-Use Subcategory


!-   ===========  ALL OBJECTS IN CLASS: PUMP:VARIABLESPEED:CONDENSATE ===========

Pump:VariableSpeed:Condensate,
    ,                        !- Name
    ,                        !- Inlet Node Name
    ,                        !- Outlet Node Name
    ,                        !- Design Steam Volume Flow Rate {m3/s}
    179352,                  !- Design Pump Head {Pa}
    ,                        !- Design Power Consumption {W}
    0.9,                     !- Motor Efficiency
    ,                        !- Fraction of Motor Inefficiencies to Fluid Stream
    ,                        !- Coefficient 1 of the Part Load Performance Curve
    1,                       !- Coefficient 2 of the Part Load Performance Curve
    ,                        !- Coefficient 3 of the Part Load Performance Curve
    ,                        !- Coefficient 4 of the Part Load Performance Curve
    ,                        !- Pump Flow Rate Schedule Name
    ,                        !- Zone Name
    ,                        !- Skin Loss Radiative Fraction
    PowerPerFlowPerPressure, !- Design Power Sizing Method
    348701.1,                !- Design Electric Power per Unit Flow Rate {W/(m3/s)}
    1.282051282,             !- Design Shaft Power per Unit Flow Rate per Unit Head {W/((m3/s)-Pa)}
    General;                 !- End-Use Subcategory


!-   ===========  ALL OBJECTS IN CLASS: HEADEREDPUMPS:CONSTANTSPEED ===========

HeaderedPumps:ConstantSpeed,
    ,                        !- Name
    ,                        !- Inlet Node Name
    ,                        !- Outlet Node Name
    ,                        !- Total Design Flow Rate {m3/s}
    ,                        !- Number of Pumps in Bank
    Sequential,              !- Flow Sequencing Control Scheme
    179352,                  !- Design Pump Head {Pa}
    ,                        !- Design Power Consumption {W}
    0.9,                     !- Motor Efficiency
    ,                        !- Fraction of Motor Inefficiencies to Fluid Stream
    Continuous,              !- Pump Control Type
    ,                        !- Pump Flow Rate Schedule Name
    ,                        !- Zone Name
    ,                        !- Skin Loss Radiative Fraction
    PowerPerFlowPerPressure, !- Design Power Sizing Method
    348701.1,                !- Design Electric Power per Unit Flow Rate {W/(m3/s)}
    1.282051282,             !- Design Shaft Power per Unit Flow Rate per Unit Head {W/((m3/s)-Pa)}
    General;                 !- End-Use Subcategory


!-   ===========  ALL OBJECTS IN CLASS: HEADEREDPUMPS:VARIABLESPEED ===========

HeaderedPumps:VariableSpeed,
    ,                        !- Name
    ,                        !- Inlet Node Name
    ,                        !- Outlet Node Name
    ,                        !- Total Design Flow Rate {m3/s}
    ,                        !- Number of Pumps in Bank
    Sequential,              !- Flow Sequencing Control Scheme
    179352,                  !- Design Pump Head {Pa}
    ,                        !- Design Power Consumption {W}
    0.9,                     !- Motor Efficiency
    ,                        !- Fraction of Motor Inefficiencies to Fluid Stream
    ,                        !- Coefficient 1 of the Part Load Performance Curve
    1,                       !- Coefficient 2 of the Part Load Performance Curve
    ,                        !- Coefficient 3 of the Part Load Performance Curve
    ,                        !- Coefficient 4 of the Part Load Performance Curve
    ,                        !- Minimum Flow Rate Fraction
    Continuous,              !- Pump Control Type
    ,                        !- Pump Flow Rate Schedule Name
    ,                        !- Zone Name
    ,                        !- Skin Loss Radiative Fraction
    PowerPerFlowPerPressure, !- Design Power Sizing Method
    348701.1,                !- Design Electric Power per Unit Flow Rate {W/(m3/s)}
    1.282051282,             !- Design Shaft Power per Unit Flow Rate per Unit Head {W/((m3/s)-Pa)}
    General;                 !- End-Use Subcategory


!-   ===========  ALL OBJECTS IN CLASS: TEMPERINGVALVE ===========

TemperingValve,
    ;                        !- Name


!-   ===========  ALL OBJECTS IN CLASS: LOADPROFILE:PLANT ===========

LoadProfile:Plant,
    ;                        !- Name


!-   ===========  ALL OBJECTS IN CLASS: SOLARCOLLECTORPERFORMANCE:FLATPLATE ===========

SolarCollectorPerformance:FlatPlate,
    ,                        !- Name
    ,                        !- Gross Area {m2}
    Water,                   !- Test Fluid
    ,                        !- Test Flow Rate {m3/s}
    ,                        !- Test Correlation Type
    ,                        !- Coefficient 1 of Efficiency Equation {dimensionless}
    ;                        !- Coefficient 2 of Efficiency Equation {W/m2-K}


!-   ===========  ALL OBJECTS IN CLASS: SOLARCOLLECTOR:FLATPLATE:WATER ===========

SolarCollector:FlatPlate:Water,
    ;                        !- Name


!-   ===========  ALL OBJECTS IN CLASS: SOLARCOLLECTOR:FLATPLATE:PHOTOVOLTAICTHERMAL ===========

SolarCollector:FlatPlate:PhotovoltaicThermal,
    ;                        !- Name


!-   ===========  ALL OBJECTS IN CLASS: SOLARCOLLECTORPERFORMANCE:PHOTOVOLTAICTHERMAL:SIMPLE ===========

SolarCollectorPerformance:PhotovoltaicThermal:Simple,
    ,                        !- Name
    ,                        !- Fraction of Surface Area with Active Thermal Collector {dimensionless}
    ,                        !- Thermal Conversion Efficiency Input Mode Type
    ,                        !- Value for Thermal Conversion Efficiency if Fixed
    ,                        !- Thermal Conversion Efficiency Schedule Name
    0.84;                    !- Front Surface Emittance


!-   ===========  ALL OBJECTS IN CLASS: SOLARCOLLECTOR:INTEGRALCOLLECTORSTORAGE ===========

SolarCollector:IntegralCollectorStorage,
    ,                        !- Name
    ,                        !- IntegralCollectorStorageParameters Name
    ,                        !- Surface Name
    AmbientAir,              !- Bottom Surface Boundary Conditions Type
    ,                        !- Boundary Condition Model Name
    ,                        !- Inlet Node Name
    ;                        !- Outlet Node Name


!-   ===========  ALL OBJECTS IN CLASS: SOLARCOLLECTORPERFORMANCE:INTEGRALCOLLECTORSTORAGE ===========

SolarCollectorPerformance:IntegralCollectorStorage,
    ,                        !- Name
    RectangularTank,         !- ICS Collector Type
    ,                        !- Gross Area {m2}
    ,                        !- Collector Water Volume {m3}
    0.4,                     !- Bottom Heat Loss Conductance {W/m2-K}
    0.6,                     !- Side Heat Loss Conductance {W/m2-K}
    0.8,                     !- Aspect Ratio {m}
    0.2,                     !- Collector Side Height {m}
    ,                        !- Thermal Mass of Absorber Plate {J/m2-K}
    2,                       !- Number of Covers
    0.05,                    !- Cover Spacing {m}
    1.526,                   !- Refractive Index of Outer Cover {dimensionless}
    0.045,                   !- Extinction Coefficient Times Thickness of Outer Cover {dimensionless}
    0.88,                    !- Emissivity of Outer Cover {dimensionless}
    1.37,                    !- Refractive Index of Inner Cover {dimensionless}
    0.008,                   !- Extinction Coefficient Times Thickness of the inner Cover {dimensionless}
    0.88,                    !- Emissivity of Inner Cover {dimensionless}
    0.96,                    !- Absorptance of Absorber Plate {dimensionless}
    0.3;                     !- Emissivity of Absorber Plate {dimensionless}


!-   ===========  ALL OBJECTS IN CLASS: SOLARCOLLECTOR:UNGLAZEDTRANSPIRED ===========

SolarCollector:UnglazedTranspired,
    ,                        !- Name
    ,                        !- Boundary Conditions Model Name
    ,                        !- Availability Schedule Name
    ,                        !- Inlet Node Name
    ,                        !- Outlet Node Name
    ,                        !- Setpoint Node Name
    ,                        !- Zone Node Name
    ,                        !- Free Heating Setpoint Schedule Name
    ,                        !- Diameter of Perforations in Collector {m}
    ,                        !- Distance Between Perforations in Collector {m}
    ,                        !- Thermal Emissivity of Collector Surface {dimensionless}
    ,                        !- Solar Absorbtivity of Collector Surface {dimensionless}
    ,                        !- Effective Overall Height of Collector
    ,                        !- Effective Gap Thickness of Plenum Behind Collector {m}
    ,                        !- Effective Cross Section Area of Plenum Behind Collector {m2}
    Square,                  !- Hole Layout Pattern for Pitch
    Kutscher1994,            !- Heat Exchange Effectiveness Correlation
    1,                       !- Ratio of Actual Collector Surface Area to Projected Surface Area {dimensionless}
    ,                        !- Roughness of Collector
    ,                        !- Collector Thickness {m}
    0.25,                    !- Effectiveness for Perforations with Respect to Wind {dimensionless}
    0.65,                    !- Discharge Coefficient for Openings with Respect to Buoyancy Driven Flow {dimensionless}
    ;                        !- Surface 1 Name


!-   ===========  ALL OBJECTS IN CLASS: SOLARCOLLECTOR:UNGLAZEDTRANSPIRED:MULTISYSTEM ===========

SolarCollector:UnglazedTranspired:Multisystem,
    ;                        !- Solar Collector Name


!-   ===========  ALL OBJECTS IN CLASS: BOILER:HOTWATER ===========

Boiler:HotWater,
    ,                        !- Name
    ,                        !- Fuel Type
    ,                        !- Nominal Capacity {W}
    ,                        !- Nominal Thermal Efficiency
    ,                        !- Efficiency Curve Temperature Evaluation Variable
    ,                        !- Normalized Boiler Efficiency Curve Name
    autosize,                !- Design Water Flow Rate {m3/s}
    ,                        !- Minimum Part Load Ratio
    1,                       !- Maximum Part Load Ratio
    1,                       !- Optimum Part Load Ratio
    ,                        !- Boiler Water Inlet Node Name
    ,                        !- Boiler Water Outlet Node Name
    99.9,                    !- Water Outlet Upper Temperature Limit {C}
    NotModulated,            !- Boiler Flow Mode
    ,                        !- Parasitic Electric Load {W}
    1,                       !- Sizing Factor
    General;                 !- End-Use Subcategory


!-   ===========  ALL OBJECTS IN CLASS: BOILER:STEAM ===========

Boiler:Steam,
    ,                        !- Name
    ,                        !- Fuel Type
    160000,                  !- Maximum Operating Pressure {Pa}
    0.8,                     !- Theoretical Efficiency
    100,                     !- Design Outlet Steam Temperature {C}
    ,                        !- Nominal Capacity {W}
    ,                        !- Minimum Part Load Ratio
    ,                        !- Maximum Part Load Ratio
    ,                        !- Optimum Part Load Ratio
    ,                        !- Coefficient 1 of Fuel Use Function of Part Load Ratio Curve
    ,                        !- Coefficient 2 of Fuel Use Function of Part Load Ratio Curve
    ,                        !- Coefficient 3 of Fuel Use Function of Part Load Ratio Curve
    ,                        !- Water Inlet Node Name
    ,                        !- Steam Outlet Node Name
    1,                       !- Sizing Factor
    General;                 !- End-Use Subcategory


!-   ===========  ALL OBJECTS IN CLASS: CHILLER:ELECTRIC:EIR ===========

Chiller:Electric:EIR,
    ,                        !- Name
    ,                        !- Reference Capacity {W}
    ,                        !- Reference COP {W/W}
    6.67,                    !- Reference Leaving Chilled Water Temperature {C}
    29.4,                    !- Reference Entering Condenser Fluid Temperature {C}
    ,                        !- Reference Chilled Water Flow Rate {m3/s}
    ,                        !- Reference Condenser Fluid Flow Rate {m3/s}
    ,                        !- Cooling Capacity Function of Temperature Curve Name
    ,                        !- Electric Input to Cooling Output Ratio Function of Temperature Curve Name
    ,                        !- Electric Input to Cooling Output Ratio Function of Part Load Ratio Curve Name
    0.1,                     !- Minimum Part Load Ratio
    1,                       !- Maximum Part Load Ratio
    1,                       !- Optimum Part Load Ratio
    0.2,                     !- Minimum Unloading Ratio
    ,                        !- Chilled Water Inlet Node Name
    ,                        !- Chilled Water Outlet Node Name
    ,                        !- Condenser Inlet Node Name
    ,                        !- Condenser Outlet Node Name
    WaterCooled,             !- Condenser Type
    ,                        !- Condenser Fan Power Ratio {W/W}
    1,                       !- Fraction of Compressor Electric Consumption Rejected by Condenser
    2,                       !- Leaving Chilled Water Lower Temperature Limit {C}
    NotModulated,            !- Chiller Flow Mode
    ,                        !- Design Heat Recovery Water Flow Rate {m3/s}
    ,                        !- Heat Recovery Inlet Node Name
    ,                        !- Heat Recovery Outlet Node Name
    1,                       !- Sizing Factor
    ,                        !- Basin Heater Capacity {W/K}
    2,                       !- Basin Heater Setpoint Temperature {C}
    ,                        !- Basin Heater Operating Schedule Name
    ,                        !- Condenser Heat Recovery Relative Capacity Fraction
    ,                        !- Heat Recovery Inlet High Temperature Limit Schedule Name
    ,                        !- Heat Recovery Leaving Temperature Setpoint Node Name
    General;                 !- End-Use Subcategory


!-   ===========  ALL OBJECTS IN CLASS: CHILLER:ELECTRIC:REFORMULATEDEIR ===========

Chiller:Electric:ReformulatedEIR,
    ,                        !- Name
    ,                        !- Reference Capacity {W}
    ,                        !- Reference COP {W/W}
    6.67,                    !- Reference Leaving Chilled Water Temperature {C}
    35,                      !- Reference Leaving Condenser Water Temperature {C}
    ,                        !- Reference Chilled Water Flow Rate {m3/s}
    ,                        !- Reference Condenser Water Flow Rate {m3/s}
    ,                        !- Cooling Capacity Function of Temperature Curve Name
    ,                        !- Electric Input to Cooling Output Ratio Function of Temperature Curve Name
    LeavingCondenserWaterTemperature,  !- Electric Input to Cooling Output Ratio Function of Part Load Ratio Curve Type
    ,                        !- Electric Input to Cooling Output Ratio Function of Part Load Ratio Curve Name
    0.1,                     !- Minimum Part Load Ratio
    1,                       !- Maximum Part Load Ratio
    1,                       !- Optimum Part Load Ratio
    0.2,                     !- Minimum Unloading Ratio
    ,                        !- Chilled Water Inlet Node Name
    ,                        !- Chilled Water Outlet Node Name
    ,                        !- Condenser Inlet Node Name
    ,                        !- Condenser Outlet Node Name
    1,                       !- Fraction of Compressor Electric Consumption Rejected by Condenser
    2,                       !- Leaving Chilled Water Lower Temperature Limit {C}
    NotModulated,            !- Chiller Flow Mode Type
    ,                        !- Design Heat Recovery Water Flow Rate {m3/s}
    ,                        !- Heat Recovery Inlet Node Name
    ,                        !- Heat Recovery Outlet Node Name
    1,                       !- Sizing Factor
    ,                        !- Condenser Heat Recovery Relative Capacity Fraction
    ,                        !- Heat Recovery Inlet High Temperature Limit Schedule Name
    ,                        !- Heat Recovery Leaving Temperature Setpoint Node Name
    General;                 !- End-Use Subcategory


!-   ===========  ALL OBJECTS IN CLASS: CHILLER:ELECTRIC ===========

Chiller:Electric,
    ,                        !- Name
    AirCooled,               !- Condenser Type
    ,                        !- Nominal Capacity {W}
    ,                        !- Nominal COP {W/W}
    ,                        !- Chilled Water Inlet Node Name
    ,                        !- Chilled Water Outlet Node Name
    ,                        !- Condenser Inlet Node Name
    ,                        !- Condenser Outlet Node Name
    ,                        !- Minimum Part Load Ratio
    ,                        !- Maximum Part Load Ratio
    ,                        !- Optimum Part Load Ratio
    ,                        !- Design Condenser Inlet Temperature {C}
    ,                        !- Temperature Rise Coefficient
    ,                        !- Design Chilled Water Outlet Temperature {C}
    ,                        !- Design Chilled Water Flow Rate {m3/s}
    ,                        !- Design Condenser Fluid Flow Rate {m3/s}
    ,                        !- Coefficient 1 of Capacity Ratio Curve
    ,                        !- Coefficient 2 of Capacity Ratio Curve
    ,                        !- Coefficient 3 of Capacity Ratio Curve
    ,                        !- Coefficient 1 of Power Ratio Curve
    ,                        !- Coefficient 2 of Power Ratio Curve
    ,                        !- Coefficient 3 of Power Ratio Curve
    ,                        !- Coefficient 1 of Full Load Ratio Curve
    ,                        !- Coefficient 2 of Full Load Ratio Curve
    ,                        !- Coefficient 3 of Full Load Ratio Curve
    ,                        !- Chilled Water Outlet Temperature Lower Limit {C}
    NotModulated,            !- Chiller Flow Mode
    ,                        !- Design Heat Recovery Water Flow Rate {m3/s}
    ,                        !- Heat Recovery Inlet Node Name
    ,                        !- Heat Recovery Outlet Node Name
    1,                       !- Sizing Factor
    ,                        !- Basin Heater Capacity {W/K}
    2,                       !- Basin Heater Setpoint Temperature {C}
    ,                        !- Basin Heater Operating Schedule Name
    ,                        !- Condenser Heat Recovery Relative Capacity Fraction
    ,                        !- Heat Recovery Inlet High Temperature Limit Schedule Name
    ,                        !- Heat Recovery Leaving Temperature Setpoint Node Name
    General;                 !- End-Use Subcategory


!-   ===========  ALL OBJECTS IN CLASS: CHILLER:ABSORPTION:INDIRECT ===========

Chiller:Absorption:Indirect,
    ,                        !- Name
    ,                        !- Nominal Capacity {W}
    ,                        !- Nominal Pumping Power {W}
    ,                        !- Chilled Water Inlet Node Name
    ,                        !- Chilled Water Outlet Node Name
    ,                        !- Condenser Inlet Node Name
    ,                        !- Condenser Outlet Node Name
    ,                        !- Minimum Part Load Ratio
    ,                        !- Maximum Part Load Ratio
    ,                        !- Optimum Part Load Ratio
    30,                      !- Design Condenser Inlet Temperature {C}
    15,                      !- Condenser Inlet Temperature Lower Limit {C}
    5,                       !- Chilled Water Outlet Temperature Lower Limit {C}
    autosize,                !- Design Chilled Water Flow Rate {m3/s}
    autosize,                !- Design Condenser Water Flow Rate {m3/s}
    NotModulated,            !- Chiller Flow Mode
    ,                        !- Generator Heat Input Function of Part Load Ratio Curve Name
    ,                        !- Pump Electric Input Function of Part Load Ratio Curve Name
    ,                        !- Generator Inlet Node Name
    ,                        !- Generator Outlet Node Name
    ,                        !- Capacity Correction Function of Condenser Temperature Curve Name
    ,                        !- Capacity Correction Function of Chilled Water Temperature Curve Name
    ,                        !- Capacity Correction Function of Generator Temperature Curve Name
    ,                        !- Generator Heat Input Correction Function of Condenser Temperature Curve Name
    ,                        !- Generator Heat Input Correction Function of Chilled Water Temperature Curve Name
    Steam,                   !- Generator Heat Source Type
    ,                        !- Design Generator Fluid Flow Rate {m3/s}
    ,                        !- Temperature Lower Limit Generator Inlet {C}
    1,                       !- Degree of Subcooling in Steam Generator {C}
    ,                        !- Degree of Subcooling in Steam Condensate Loop {C}
    1;                       !- Sizing Factor


!-   ===========  ALL OBJECTS IN CLASS: CHILLER:ABSORPTION ===========

Chiller:Absorption,
    ,                        !- Name
    ,                        !- Nominal Capacity {W}
    ,                        !- Nominal Pumping Power {W}
    ,                        !- Chilled Water Inlet Node Name
    ,                        !- Chilled Water Outlet Node Name
    ,                        !- Condenser Inlet Node Name
    ,                        !- Condenser Outlet Node Name
    ,                        !- Minimum Part Load Ratio
    ,                        !- Maximum Part Load Ratio
    ,                        !- Optimum Part Load Ratio
    ,                        !- Design Condenser Inlet Temperature {C}
    ,                        !- Design Chilled Water Flow Rate {m3/s}
    ,                        !- Design Condenser Water Flow Rate {m3/s}
    ,                        !- Coefficient 1 of the Hot Water or Steam Use Part Load Ratio Curve
    ,                        !- Coefficient 2 of the Hot Water or Steam Use Part Load Ratio Curve
    ,                        !- Coefficient 3 of the Hot Water or Steam Use Part Load Ratio Curve
    ,                        !- Coefficient 1 of the Pump Electric Use Part Load Ratio Curve
    ,                        !- Coefficient 2 of the Pump Electric Use Part Load Ratio Curve
    ,                        !- Coefficient 3 of the Pump Electric Use Part Load Ratio Curve
    ,                        !- Chilled Water Outlet Temperature Lower Limit {C}
    ,                        !- Generator Inlet Node Name
    ,                        !- Generator Outlet Node Name
    NotModulated,            !- Chiller Flow Mode
    Steam,                   !- Generator Heat Source Type
    ,                        !- Design Generator Fluid Flow Rate {m3/s}
    1,                       !- Degree of Subcooling in Steam Generator {C}
    1;                       !- Sizing Factor


!-   ===========  ALL OBJECTS IN CLASS: CHILLER:CONSTANTCOP ===========

Chiller:ConstantCOP,
    ,                        !- Name
    ,                        !- Nominal Capacity {W}
    ,                        !- Nominal COP {W/W}
    ,                        !- Design Chilled Water Flow Rate {m3/s}
    ,                        !- Design Condenser Water Flow Rate {m3/s}
    ,                        !- Chilled Water Inlet Node Name
    ,                        !- Chilled Water Outlet Node Name
    ,                        !- Condenser Inlet Node Name
    ,                        !- Condenser Outlet Node Name
    AirCooled,               !- Condenser Type
    NotModulated,            !- Chiller Flow Mode
    1,                       !- Sizing Factor
    ,                        !- Basin Heater Capacity {W/K}
    2;                       !- Basin Heater Setpoint Temperature {C}


!-   ===========  ALL OBJECTS IN CLASS: CHILLER:ENGINEDRIVEN ===========

Chiller:EngineDriven,
    ,                        !- Name
    AirCooled,               !- Condenser Type
    ,                        !- Nominal Capacity {W}
    ,                        !- Nominal COP {W/W}
    ,                        !- Chilled Water Inlet Node Name
    ,                        !- Chilled Water Outlet Node Name
    ,                        !- Condenser Inlet Node Name
    ,                        !- Condenser Outlet Node Name
    ,                        !- Minimum Part Load Ratio
    ,                        !- Maximum Part Load Ratio
    ,                        !- Optimum Part Load Ratio
    ,                        !- Design Condenser Inlet Temperature {C}
    ,                        !- Temperature Rise Coefficient
    ,                        !- Design Chilled Water Outlet Temperature {C}
    ,                        !- Design Chilled Water Flow Rate {m3/s}
    ,                        !- Design Condenser Water Flow Rate {m3/s}
    ,                        !- Coefficient 1 of Capacity Ratio Curve
    ,                        !- Coefficient 2 of Capacity Ratio Curve
    ,                        !- Coefficient 3 of Capacity Ratio Curve
    ,                        !- Coefficient 1 of Power Ratio Curve
    ,                        !- Coefficient 2 of Power Ratio Curve
    ,                        !- Coefficient 3 of Power Ratio Curve
    ,                        !- Coefficient 1 of Full Load Ratio Curve
    ,                        !- Coefficient 2 of Full Load Ratio Curve
    ,                        !- Coefficient 3 of Full Load Ratio Curve
    ,                        !- Chilled Water Outlet Temperature Lower Limit {C}
    ,                        !- Fuel Use Curve Name
    ,                        !- Jacket Heat Recovery Curve Name
    ,                        !- Lube Heat Recovery Curve Name
    ,                        !- Total Exhaust Energy Curve Name
    ,                        !- Exhaust Temperature Curve Name
    ,                        !- Coefficient 1 of U-Factor Times Area Curve
    ,                        !- Coefficient 2 of U-Factor Times Area Curve
    ,                        !- Maximum Exhaust Flow per Unit of Power Output {(kg/s)/W}
    ,                        !- Design Minimum Exhaust Temperature {C}
    ,                        !- Fuel Type
    ,                        !- Fuel Higher Heating Value {kJ/kg}
    ,                        !- Design Heat Recovery Water Flow Rate {m3/s}
    ,                        !- Heat Recovery Inlet Node Name
    ,                        !- Heat Recovery Outlet Node Name
    NotModulated,            !- Chiller Flow Mode
    60,                      !- Maximum Temperature for Heat Recovery at Heat Recovery Outlet Node {C}
    1,                       !- Sizing Factor
    ,                        !- Basin Heater Capacity {W/K}
    2;                       !- Basin Heater Setpoint Temperature {C}


!-   ===========  ALL OBJECTS IN CLASS: CHILLER:COMBUSTIONTURBINE ===========

Chiller:CombustionTurbine,
    ,                        !- Name
    AirCooled,               !- Condenser Type
    ,                        !- Nominal Capacity {W}
    ,                        !- Nominal COP {W/W}
    ,                        !- Chilled Water Inlet Node Name
    ,                        !- Chilled Water Outlet Node Name
    ,                        !- Condenser Inlet Node Name
    ,                        !- Condenser Outlet Node Name
    ,                        !- Minimum Part Load Ratio
    ,                        !- Maximum Part Load Ratio
    ,                        !- Optimum Part Load Ratio
    ,                        !- Design Condenser Inlet Temperature {C}
    ,                        !- Temperature Rise Coefficient
    ,                        !- Design Chilled Water Outlet Temperature {C}
    ,                        !- Design Chilled Water Flow Rate {m3/s}
    ,                        !- Design Condenser Water Flow Rate {m3/s}
    ,                        !- Coefficient 1 of Capacity Ratio Curve
    ,                        !- Coefficient 2 of Capacity Ratio Curve
    ,                        !- Coefficient 3 of Capacity Ratio Curve
    ,                        !- Coefficient 1 of Power Ratio Curve
    ,                        !- Coefficient 2 of Power Ratio Curve
    ,                        !- Coefficient 3 of Power Ratio Curve
    ,                        !- Coefficient 1 of Full Load Ratio Curve
    ,                        !- Coefficient 2 of Full Load Ratio Curve
    ,                        !- Coefficient 3 of Full Load Ratio Curve
    ,                        !- Chilled Water Outlet Temperature Lower Limit {C}
    ,                        !- Coefficient 1 of Fuel Input Curve
    ,                        !- Coefficient 2 of Fuel Input Curve
    ,                        !- Coefficient 3 of Fuel Input Curve
    ,                        !- Coefficient 1 of Temperature Based Fuel Input Curve
    ,                        !- Coefficient 2 of Temperature Based Fuel Input Curve
    ,                        !- Coefficient 3 of Temperature Based Fuel Input Curve
    ,                        !- Coefficient 1 of Exhaust Flow Curve
    ,                        !- Coefficient 2 of Exhaust Flow Curve
    ,                        !- Coefficient 3 of Exhaust Flow Curve
    ,                        !- Coefficient 1 of Exhaust Gas Temperature Curve
    ,                        !- Coefficient 2 of Exhaust Gas Temperature Curve
    ,                        !- Coefficient 3 of Exhaust Gas Temperature Curve
    ,                        !- Coefficient 1 of Temperature Based Exhaust Gas Temperature Curve
    ,                        !- Coefficient 2 of Temperature Based Exhaust Gas Temperature Curve
    ,                        !- Coefficient 3 of Temperature Based Exhaust Gas Temperature Curve
    ,                        !- Coefficient 1 of Recovery Lube Heat Curve
    ,                        !- Coefficient 2 of Recovery Lube Heat Curve
    ,                        !- Coefficient 3 of Recovery Lube Heat Curve
    ,                        !- Coefficient 1 of U-Factor Times Area Curve
    ,                        !- Coefficient 2 of U-Factor Times Area Curve
    ,                        !- Gas Turbine Engine Capacity {W}
    ,                        !- Maximum Exhaust Flow per Unit of Power Output {(kg/s)/W}
    ,                        !- Design Steam Saturation Temperature {C}
    ,                        !- Fuel Higher Heating Value {kJ/kg}
    ,                        !- Design Heat Recovery Water Flow Rate {m3/s}
    ,                        !- Heat Recovery Inlet Node Name
    ,                        !- Heat Recovery Outlet Node Name
    NotModulated,            !- Chiller Flow Mode
    NaturalGas,              !- Fuel Type
    80,                      !- Heat Recovery Maximum Temperature {C}
    1,                       !- Sizing Factor
    ,                        !- Basin Heater Capacity {W/K}
    2,                       !- Basin Heater Setpoint Temperature {C}
    ,                        !- Basin Heater Operating Schedule Name
    ,                        !- Condenser Heat Recovery Relative Capacity Fraction
    0.35;                    !- Turbine Engine Efficiency


!-   ===========  ALL OBJECTS IN CLASS: CHILLERHEATER:ABSORPTION:DIRECTFIRED ===========

ChillerHeater:Absorption:DirectFired,
    ,                        !- Name
    autosize,                !- Nominal Cooling Capacity {W}
    0.8,                     !- Heating to Cooling Capacity Ratio
    0.97,                    !- Fuel Input to Cooling Output Ratio
    1.25,                    !- Fuel Input to Heating Output Ratio
    0.01,                    !- Electric Input to Cooling Output Ratio
    ,                        !- Electric Input to Heating Output Ratio
    ,                        !- Chilled Water Inlet Node Name
    ,                        !- Chilled Water Outlet Node Name
    ,                        !- Condenser Inlet Node Name
    ,                        !- Condenser Outlet Node Name
    ,                        !- Hot Water Inlet Node Name
    ,                        !- Hot Water Outlet Node Name
    0.1,                     !- Minimum Part Load Ratio
    1,                       !- Maximum Part Load Ratio
    1,                       !- Optimum Part Load Ratio
    29,                      !- Design Entering Condenser Water Temperature {C}
    7,                       !- Design Leaving Chilled Water Temperature {C}
    autosize,                !- Design Chilled Water Flow Rate {m3/s}
    autosize,                !- Design Condenser Water Flow Rate {m3/s}
    autosize,                !- Design Hot Water Flow Rate {m3/s}
    ,                        !- Cooling Capacity Function of Temperature Curve Name
    ,                        !- Fuel Input to Cooling Output Ratio Function of Temperature Curve Name
    ,                        !- Fuel Input to Cooling Output Ratio Function of Part Load Ratio Curve Name
    ,                        !- Electric Input to Cooling Output Ratio Function of Temperature Curve Name
    ,                        !- Electric Input to Cooling Output Ratio Function of Part Load Ratio Curve Name
    ,                        !- Heating Capacity Function of Cooling Capacity Curve Name
    ,                        !- Fuel Input to Heat Output Ratio During Heating Only Operation Curve Name
    EnteringCondenser,       !- Temperature Curve Input Variable
    WaterCooled,             !- Condenser Type
    2,                       !- Chilled Water Temperature Lower Limit {C}
    ,                        !- Fuel Higher Heating Value {kJ/kg}
    NaturalGas,              !- Fuel Type
    1;                       !- Sizing Factor


!-   ===========  ALL OBJECTS IN CLASS: CHILLERHEATER:ABSORPTION:DOUBLEEFFECT ===========

ChillerHeater:Absorption:DoubleEffect,
    ,                        !- Name
    autosize,                !- Nominal Cooling Capacity {W}
    0.8,                     !- Heating to Cooling Capacity Ratio
    0.97,                    !- Thermal Energy Input to Cooling Output Ratio
    1.25,                    !- Thermal Energy Input to Heating Output Ratio
    0.01,                    !- Electric Input to Cooling Output Ratio
    ,                        !- Electric Input to Heating Output Ratio
    ,                        !- Chilled Water Inlet Node Name
    ,                        !- Chilled Water Outlet Node Name
    ,                        !- Condenser Inlet Node Name
    ,                        !- Condenser Outlet Node Name
    ,                        !- Hot Water Inlet Node Name
    ,                        !- Hot Water Outlet Node Name
    0.1,                     !- Minimum Part Load Ratio
    1,                       !- Maximum Part Load Ratio
    1,                       !- Optimum Part Load Ratio
    29,                      !- Design Entering Condenser Water Temperature {C}
    7,                       !- Design Leaving Chilled Water Temperature {C}
    autosize,                !- Design Chilled Water Flow Rate {m3/s}
    autosize,                !- Design Condenser Water Flow Rate {m3/s}
    autosize,                !- Design Hot Water Flow Rate {m3/s}
    ,                        !- Cooling Capacity Function of Temperature Curve Name
    ,                        !- Fuel Input to Cooling Output Ratio Function of Temperature Curve Name
    ,                        !- Fuel Input to Cooling Output Ratio Function of Part Load Ratio Curve Name
    ,                        !- Electric Input to Cooling Output Ratio Function of Temperature Curve Name
    ,                        !- Electric Input to Cooling Output Ratio Function of Part Load Ratio Curve Name
    ,                        !- Heating Capacity Function of Cooling Capacity Curve Name
    ,                        !- Fuel Input to Heat Output Ratio During Heating Only Operation Curve Name
    EnteringCondenser,       !- Temperature Curve Input Variable
    WaterCooled,             !- Condenser Type
    2,                       !- Chilled Water Temperature Lower Limit {C}
    ,                        !- Exhaust Source Object Type
    ,                        !- Exhaust Source Object Name
    1;                       !- Sizing Factor


!-   ===========  ALL OBJECTS IN CLASS: HEATPUMP:PLANTLOOP:EIR:COOLING ===========

HeatPump:PlantLoop:EIR:Cooling,
    ,                        !- Name
    ,                        !- Load Side Inlet Node Name
    ,                        !- Load Side Outlet Node Name
    WaterSource,             !- Condenser Type
    ,                        !- Source Side Inlet Node Name
    ,                        !- Source Side Outlet Node Name
    ,                        !- Companion Heat Pump Name
    autosize,                !- Load Side Reference Flow Rate {m3/s}
    autosize,                !- Source Side Reference Flow Rate {m3/s}
    autosize,                !- Reference Capacity {W}
    7.5,                     !- Reference Coefficient of Performance {W/W}
    1,                       !- Sizing Factor
    ,                        !- Capacity Modifier Function of Temperature Curve Name
    ;                        !- Electric Input to Output Ratio Modifier Function of Temperature Curve Name


!-   ===========  ALL OBJECTS IN CLASS: HEATPUMP:PLANTLOOP:EIR:HEATING ===========

HeatPump:PlantLoop:EIR:Heating,
    ,                        !- Name
    ,                        !- Load Side Inlet Node Name
    ,                        !- Load Side Outlet Node Name
    WaterSource,             !- Condenser Type
    ,                        !- Source Side Inlet Node Name
    ,                        !- Source Side Outlet Node Name
    ,                        !- Companion Heat Pump Name
    autosize,                !- Load Side Reference Flow Rate {m3/s}
    autosize,                !- Source Side Reference Flow Rate {m3/s}
    autosize,                !- Reference Capacity {W}
    7.5,                     !- Reference Coefficient of Performance {W/W}
    1,                       !- Sizing Factor
    ,                        !- Capacity Modifier Function of Temperature Curve Name
    ;                        !- Electric Input to Output Ratio Modifier Function of Temperature Curve Name


!-   ===========  ALL OBJECTS IN CLASS: HEATPUMP:WATERTOWATER:EQUATIONFIT:HEATING ===========

HeatPump:WaterToWater:EquationFit:Heating,
    ,                        !- Name
    ,                        !- Source Side Inlet Node Name
    ,                        !- Source Side Outlet Node Name
    ,                        !- Load Side Inlet Node Name
    ,                        !- Load Side Outlet Node Name
    ,                        !- Reference Load Side Flow Rate {m3/s}
    ,                        !- Reference Source Side Flow Rate {m3/s}
    ,                        !- Reference Heating Capacity {W}
    ,                        !- Reference Heating Power Consumption {W}
    ,                        !- Heating Capacity Curve Name
    ,                        !- Heating Compressor Power Curve Name
    7.5,                     !- Reference Coefficient of Performance {W/W}
    1;                       !- Sizing Factor


!-   ===========  ALL OBJECTS IN CLASS: HEATPUMP:WATERTOWATER:EQUATIONFIT:COOLING ===========

HeatPump:WaterToWater:EquationFit:Cooling,
    ,                        !- Name
    ,                        !- Source Side Inlet Node Name
    ,                        !- Source Side Outlet Node Name
    ,                        !- Load Side Inlet Node Name
    ,                        !- Load Side Outlet Node Name
    ,                        !- Reference Load Side Flow Rate {m3/s}
    ,                        !- Reference Source Side Flow Rate {m3/s}
    ,                        !- Reference Cooling Capacity {W}
    ,                        !- Reference Cooling Power Consumption {W}
    ,                        !- Cooling Capacity Curve Name
    ,                        !- Cooling Compressor Power Curve Name
    8,                       !- Reference Coefficient of Performance {W/W}
    1;                       !- Sizing Factor


!-   ===========  ALL OBJECTS IN CLASS: HEATPUMP:WATERTOWATER:PARAMETERESTIMATION:COOLING ===========

HeatPump:WaterToWater:ParameterEstimation:Cooling,
    ,                        !- Name
    ,                        !- Source Side Inlet Node Name
    ,                        !- Source Side Outlet Node Name
    ,                        !- Load Side Inlet Node Name
    ,                        !- Load Side Outlet Node Name
    ,                        !- Nominal COP {W/W}
    ,                        !- Nominal Capacity {W}
    ,                        !- Minimum Part Load Ratio
    ,                        !- Maximum Part Load Ratio
    ,                        !- Optimum Part Load Ratio
    ,                        !- Load Side Flow Rate {m3/s}
    ,                        !- Source Side Flow Rate {m3/s}
    ,                        !- Load Side Heat Transfer Coefficient {W/K}
    ,                        !- Source Side Heat Transfer Coefficient {W/K}
    ,                        !- Piston Displacement {m3/s}
    ,                        !- Compressor Clearance Factor
    ,                        !- Compressor Suction and Discharge Pressure Drop {Pa}
    ,                        !- Superheating {C}
    ,                        !- Constant Part of Electromechanical Power Losses {W}
    ,                        !- Loss Factor
    500000000;               !- High Pressure Cut Off {Pa}


!-   ===========  ALL OBJECTS IN CLASS: HEATPUMP:WATERTOWATER:PARAMETERESTIMATION:HEATING ===========

HeatPump:WaterToWater:ParameterEstimation:Heating,
    ,                        !- Name
    ,                        !- Source Side Inlet Node Name
    ,                        !- Source Side Outlet Node Name
    ,                        !- Load Side Inlet Node Name
    ,                        !- Load Side Outlet Node Name
    ,                        !- Nominal COP {W/W}
    ,                        !- Nominal Capacity {W}
    ,                        !- Minimum Part Load Ratio
    ,                        !- Maximum Part Load Ratio
    ,                        !- Optimum Part Load Ratio
    ,                        !- Load Side Flow Rate {m3/s}
    ,                        !- Source Side Flow Rate {m3/s}
    ,                        !- Load Side Heat Transfer Coefficient {W/K}
    ,                        !- Source Side Heat Transfer Coefficient {W/K}
    ,                        !- Piston Displacement {m3/s}
    ,                        !- Compressor Clearance Factor
    ,                        !- Compressor Suction and Discharge Pressure Drop {Pa}
    ,                        !- Superheating {C}
    ,                        !- Constant Part of Electromechanical Power Losses {W}
    ,                        !- Loss Factor
    500000000;               !- High Pressure Cut Off {Pa}


!-   ===========  ALL OBJECTS IN CLASS: DISTRICTCOOLING ===========

DistrictCooling,
    ;                        !- Name


!-   ===========  ALL OBJECTS IN CLASS: DISTRICTHEATING ===========

DistrictHeating,
    ;                        !- Name


!-   ===========  ALL OBJECTS IN CLASS: PLANTCOMPONENT:TEMPERATURESOURCE ===========

PlantComponent:TemperatureSource,
    ;                        !- Name


!-   ===========  ALL OBJECTS IN CLASS: CENTRALHEATPUMPSYSTEM ===========

CentralHeatPumpSystem,
    ,                        !- Name
    SmartMixing,             !- Control Method
    ,                        !- Cooling Loop Inlet Node Name
    ,                        !- Cooling Loop Outlet Node Name
    ,                        !- Source Loop Inlet Node Name
    ,                        !- Source Loop Outlet Node Name
    ,                        !- Heating Loop Inlet Node Name
    ,                        !- Heating Loop Outlet Node Name
    ,                        !- Ancillary Power {W}
    ,                        !- Ancillary Operation Schedule Name
    ,                        !- Chiller Heater Modules Performance Component Object Type 1
    ,                        !- Chiller Heater Modules Performance Component Name 1
    ,                        !- Chiller Heater Modules Control Schedule Name 1
    1,                       !- Number of Chiller Heater Modules 1
    ,                        !- Chiller Heater Modules Performance Component Object Type 2
    ,                        !- Chiller Heater Modules Performance Component Name 2
    ,                        !- Chiller Heater Modules Control Schedule Name 2
    1,                       !- Number of Chiller Heater Modules 2
    ,                        !- Chiller Heater Performance Component Object Type 3
    ,                        !- Chiller Heater Performance Component Name 3
    ,                        !- Chiller Heater Modules Control Schedule Name 3
    1,                       !- Number of Chiller Heater Modules 3
    ,                        !- Chiller Heater Modules Performance Component Object Type 4
    ,                        !- Chiller Heater Modules Performance Component Name 4
    ,                        !- Chiller Heater Modules Control Schedule Name 4
    1,                       !- Number of Chiller Heater Modules 4
    ,                        !- Chiller Heater Modules Performance Component Object Type 5
    ,                        !- Chiller Heater Models Performance Component Name 5
    ,                        !- Chiller Heater Modules Control Schedule Name 5
    1,                       !- Number of Chiller Heater Modules 5
    ,                        !- Chiller Heater Modules Performance Component Object Type 6
    ,                        !- Chiller Heater Modules Performance Component Name 6
    ,                        !- Chiller Heater Modules Control Schedule Name 6
    1,                       !- Number of Chiller Heater Modules 6
    ,                        !- Chiller Heater Modules Performance Component Object Type 7
    ,                        !- Chiller Heater Modules Performance Component Name 7
    ,                        !- Chiller Heater Modules Control Schedule Name 7
    1,                       !- Number of Chiller Heater Modules 7
    ,                        !- Chiller Heater Modules Performance Component Object Type 8
    ,                        !- Chiller Heater Modules Performance Component Name 8
    ,                        !- Chiller Heater Modules Control Schedule Name 8
    1,                       !- Number of Chiller Heater Modules 8
    ,                        !- Chiller Heater Modules Performance Component Object Type 9
    ,                        !- Chiller Heater Modules Performance Component Name 9
    ,                        !- Chiller Heater Modules Control Schedule Name 9
    1,                       !- Number of Chiller Heater Modules 9
    ,                        !- Chiller Heater Modules Performance Component Object Type 10
    ,                        !- Chiller Heater Modules Performance Component Name 10
    ,                        !- Chiller Heater Modules Control Schedule Name 10
    1,                       !- Number of Chiller Heater Modules 10
    ,                        !- Chiller Heater Modules Performance Component Object Type 11
    ,                        !- Chiller Heater Modules Performance Component Name 11
    ,                        !- Chiller Heater Module Control Schedule Name 11
    1,                       !- Number of Chiller Heater Modules 11
    ,                        !- Chiller Heater Modules Performance Component Object Type 12
    ,                        !- Chiller Heater Modules Performance Component Name 12
    ,                        !- Chiller Heater Modules Control Schedule Name 12
    1,                       !- Number of Chiller Heater Modules 12
    ,                        !- Chiller Heater Modules Performance Component Object Type 13
    ,                        !- Chiller Heater Modules Performance Component Name 13
    ,                        !- Chiller Heater Modules Control Schedule Name 13
    1,                       !- Number of Chiller Heater Modules 13
    ,                        !- Chiller Heater Modules Performance Component Object Type 14
    ,                        !- Chiller Heater Modules Performance Component Name 14
    ,                        !- Chiller Heater Modules Control Schedule Name 14
    1,                       !- Number of Chiller Heater Modules 14
    ,                        !- Chiller Heater Modules Performance Component Object Type 15
    ,                        !- Chiller Heater Modules Performance Component Name 15
    ,                        !- Chiller Heater Modules Control Schedule Name 15
    1,                       !- Number of Chiller Heater Modules 15
    ,                        !- Chiller Heater Modules Performance Component Object Type 16
    ,                        !- Chiller Heater Modules Performance Component Name 16
    ,                        !- Chiller Heater Modules Control Schedule Name 16
    1,                       !- Number of Chiller Heater Modules 16
    ,                        !- Chiller Heater Modules Performance Component Object Type 17
    ,                        !- Chiller Heater Modules Performance Component Name 17
    ,                        !- Chiller Heater Modules Control Schedule Name 17
    1,                       !- Number of Chiller Heater Modules 17
    ,                        !- Chiller Heater Modules Performance Component Object Type 18
    ,                        !- Chiller Heater Modules Performance Component Name 18
    ,                        !- Chiller Heater Modules Control Control Schedule Name 18
    1,                       !- Number of Chiller Heater Modules 18
    ,                        !- Chiller Heater Modules Performance Component Object Type 19
    ,                        !- Chiller Heater Modules Performance Component Name 19
    ,                        !- Chiller Heater Modules Control Schedule Name 19
    1,                       !- Number of Chiller Heater Modules 19
    ,                        !- Chiller Heater Modules Performance Component Object Type 20
    ,                        !- Chiller Heater Modules Performance Component Name 20
    ,                        !- Chiller Heater Modules Control Schedule Name 20
    1;                       !- Number of Chiller Heater Modules 20


!-   ===========  ALL OBJECTS IN CLASS: CHILLERHEATERPERFORMANCE:ELECTRIC:EIR ===========

ChillerHeaterPerformance:Electric:EIR,
    ,                        !- Name
    ,                        !- Reference Cooling Mode Evaporator Capacity {W}
    ,                        !- Reference Cooling Mode COP {W/W}
    6.67,                    !- Reference Cooling Mode Leaving Chilled Water Temperature {C}
    29.44,                   !- Reference Cooling Mode Entering Condenser Fluid Temperature {C}
    35,                      !- Reference Cooling Mode Leaving Condenser Water Temperature {C}
    0.75,                    !- Reference Heating Mode Cooling Capacity Ratio
    1.38,                    !- Reference Heating Mode Cooling Power Input Ratio
    6.67,                    !- Reference Heating Mode Leaving Chilled Water Temperature {C}
    49,                      !- Reference Heating Mode Leaving Condenser Water Temperature {C}
    29.44,                   !- Reference Heating Mode Entering Condenser Fluid Temperature {C}
    12.22,                   !- Heating Mode Entering Chilled Water Temperature Low Limit {C}
    ConstantFlow,            !- Chilled Water Flow Mode Type
    ,                        !- Design Chilled Water Flow Rate {m3/s}
    ,                        !- Design Condenser Water Flow Rate {m3/s}
    ,                        !- Design Hot Water Flow Rate {m3/s}
    1,                       !- Compressor Motor Efficiency
    WaterCooled,             !- Condenser Type
    EnteringCondenser,       !- Cooling Mode Temperature Curve Condenser Water Independent Variable
    ,                        !- Cooling Mode Cooling Capacity Function of Temperature Curve Name
    ,                        !- Cooling Mode Electric Input to Cooling Output Ratio Function of Temperature Curve Name
    ,                        !- Cooling Mode Electric Input to Cooling Output Ratio Function of Part Load Ratio Curve Name
    1,                       !- Cooling Mode Cooling Capacity Optimum Part Load Ratio
    LeavingCondenser,        !- Heating Mode Temperature Curve Condenser Water Independent Variable
    ,                        !- Heating Mode Cooling Capacity Function of Temperature Curve Name
    ,                        !- Heating Mode Electric Input to Cooling Output Ratio Function of Temperature Curve Name
    ,                        !- Heating Mode Electric Input to Cooling Output Ratio Function of Part Load Ratio Curve Name
    1,                       !- Heating Mode Cooling Capacity Optimum Part Load Ratio
    1;                       !- Sizing Factor


!-   ===========  ALL OBJECTS IN CLASS: COOLINGTOWER:SINGLESPEED ===========

CoolingTower:SingleSpeed,
    ,                        !- Name
    ,                        !- Water Inlet Node Name
    ,                        !- Water Outlet Node Name
    ,                        !- Design Water Flow Rate {m3/s}
    ,                        !- Design Air Flow Rate {m3/s}
    ,                        !- Design Fan Power {W}
    ,                        !- Design U-Factor Times Area Value {W/K}
    ,                        !- Free Convection Regime Air Flow Rate {m3/s}
    0.1,                     !- Free Convection Regime Air Flow Rate Sizing Factor
    ,                        !- Free Convection Regime U-Factor Times Area Value {W/K}
    0.1,                     !- Free Convection U-Factor Times Area Value Sizing Factor
    UFactorTimesAreaAndDesignWaterFlowRate,  !- Performance Input Method
    1.25,                    !- Heat Rejection Capacity and Nominal Capacity Sizing Ratio
    ,                        !- Nominal Capacity {W}
    ,                        !- Free Convection Capacity {W}
    0.1,                     !- Free Convection Nominal Capacity Sizing Factor
    35,                      !- Design Inlet Air Dry-Bulb Temperature {C}
    25.6,                    !- Design Inlet Air Wet-Bulb Temperature {C}
    autosize,                !- Design Approach Temperature {deltaC}
    autosize,                !- Design Range Temperature {deltaC}
    ,                        !- Basin Heater Capacity {W/K}
    2,                       !- Basin Heater Setpoint Temperature {C}
    ,                        !- Basin Heater Operating Schedule Name
    ,                        !- Evaporation Loss Mode
    0.2,                     !- Evaporation Loss Factor {percent/K}
    0.008,                   !- Drift Loss Percent {percent}
    ,                        !- Blowdown Calculation Mode
    3,                       !- Blowdown Concentration Ratio
    ,                        !- Blowdown Makeup Water Usage Schedule Name
    ,                        !- Supply Water Storage Tank Name
    ,                        !- Outdoor Air Inlet Node Name
    FanCycling,              !- Capacity Control
    1,                       !- Number of Cells
    MinimalCell,             !- Cell Control
    0.33,                    !- Cell Minimum  Water Flow Rate Fraction
    2.5,                     !- Cell Maximum Water Flow Rate Fraction
    1,                       !- Sizing Factor
    General;                 !- End-Use Subcategory


!-   ===========  ALL OBJECTS IN CLASS: COOLINGTOWER:TWOSPEED ===========

CoolingTower:TwoSpeed,
    ,                        !- Name
    ,                        !- Water Inlet Node Name
    ,                        !- Water Outlet Node Name
    ,                        !- Design Water Flow Rate {m3/s}
    ,                        !- High Fan Speed Air Flow Rate {m3/s}
    ,                        !- High Fan Speed Fan Power {W}
    ,                        !- High Fan Speed U-Factor Times Area Value {W/K}
    ,                        !- Low Fan Speed Air Flow Rate {m3/s}
    0.5,                     !- Low Fan Speed Air Flow Rate Sizing Factor
    ,                        !- Low Fan Speed Fan Power {W}
    0.16,                    !- Low Fan Speed Fan Power Sizing Factor
    ,                        !- Low Fan Speed U-Factor Times Area Value {W/K}
    0.6,                     !- Low Fan Speed U-Factor Times Area Sizing Factor
    ,                        !- Free Convection Regime Air Flow Rate {m3/s}
    0.1,                     !- Free Convection Regime Air Flow Rate Sizing Factor
    ,                        !- Free Convection Regime U-Factor Times Area Value {W/K}
    0.1,                     !- Free Convection U-Factor Times Area Value Sizing Factor
    UFactorTimesAreaAndDesignWaterFlowRate,  !- Performance Input Method
    1.25,                    !- Heat Rejection Capacity and Nominal Capacity Sizing Ratio
    ,                        !- High Speed Nominal Capacity {W}
    ,                        !- Low Speed Nominal Capacity {W}
    0.5,                     !- Low Speed Nominal Capacity Sizing Factor
    ,                        !- Free Convection Nominal Capacity {W}
    0.1,                     !- Free Convection Nominal Capacity Sizing Factor
    35,                      !- Design Inlet Air Dry-Bulb Temperature {C}
    25.6,                    !- Design Inlet Air Wet-Bulb Temperature {C}
    autosize,                !- Design Approach Temperature {deltaC}
    autosize,                !- Design Range Temperature {deltaC}
    ,                        !- Basin Heater Capacity {W/K}
    2,                       !- Basin Heater Setpoint Temperature {C}
    ,                        !- Basin Heater Operating Schedule Name
    ,                        !- Evaporation Loss Mode
    0.2,                     !- Evaporation Loss Factor {percent/K}
    0.008,                   !- Drift Loss Percent {percent}
    ,                        !- Blowdown Calculation Mode
    3,                       !- Blowdown Concentration Ratio
    ,                        !- Blowdown Makeup Water Usage Schedule Name
    ,                        !- Supply Water Storage Tank Name
    ,                        !- Outdoor Air Inlet Node Name
    1,                       !- Number of Cells
    MinimalCell,             !- Cell Control
    0.33,                    !- Cell Minimum  Water Flow Rate Fraction
    2.5,                     !- Cell Maximum Water Flow Rate Fraction
    1,                       !- Sizing Factor
    General;                 !- End-Use Subcategory


!-   ===========  ALL OBJECTS IN CLASS: COOLINGTOWER:VARIABLESPEED:MERKEL ===========

CoolingTower:VariableSpeed:Merkel,
    ,                        !- Name
    ,                        !- Water Inlet Node Name
    ,                        !- Water Outlet Node Name
    NominalCapacity,         !- Performance Input Method
    1.25,                    !- Heat Rejection Capacity and Nominal Capacity Sizing Ratio
    ,                        !- Nominal Capacity {W}
    ,                        !- Free Convection Nominal Capacity {W}
    0.1,                     !- Free Convection Nominal Capacity Sizing Factor
    ,                        !- Design Water Flow Rate {m3/s}
    0.00000005382,           !- Design Water Flow Rate per Unit of Nominal Capacity {m3/s-W}
    ,                        !- Design Air Flow Rate {m3/s}
    0.0000276316,            !- Design Air Flow Rate Per Unit of Nominal Capacity {m3/s-W}
    0.2,                     !- Minimum Air Flow Rate Ratio
    ,                        !- Design Fan Power {W}
    0.0105,                  !- Design Fan Power Per Unit of Nominal Capacity {dimensionless}
    ,                        !- Fan Power Modifier Function of Air Flow Rate Ratio Curve Name
    ,                        !- Free Convection Regime Air Flow Rate {m3/s}
    0.1,                     !- Free Convection Regime Air Flow Rate Sizing Factor
    ,                        !- Design Air Flow Rate U-Factor Times Area Value {W/K}
    ,                        !- Free Convection Regime U-Factor Times Area Value {W/K}
    0.1,                     !- Free Convection U-Factor Times Area Value Sizing Factor
    ,                        !- U-Factor Times Area Modifier Function of Air Flow Ratio Curve Name
    ,                        !- U-Factor Times Area Modifier Function of Wetbulb Temperature Difference Curve Name
    ,                        !- U-Factor Times Area Modifier Function of Water Flow Ratio Curve Name
    35,                      !- Design Inlet Air Dry-Bulb Temperature {C}
    25.6,                    !- Design Inlet Air Wet-Bulb Temperature {C}
    autosize,                !- Design Approach Temperature {deltaC}
    autosize,                !- Design Range Temperature {deltaC}
    ,                        !- Basin Heater Capacity {W/K}
    2,                       !- Basin Heater Setpoint Temperature {C}
    ,                        !- Basin Heater Operating Schedule Name
    ,                        !- Evaporation Loss Mode
    0.2,                     !- Evaporation Loss Factor {percent/K}
    0.008,                   !- Drift Loss Percent {percent}
    ,                        !- Blowdown Calculation Mode
    3,                       !- Blowdown Concentration Ratio
    ,                        !- Blowdown Makeup Water Usage Schedule Name
    ,                        !- Supply Water Storage Tank Name
    ,                        !- Outdoor Air Inlet Node Name
    1,                       !- Number of Cells
    MinimalCell,             !- Cell Control
    0.33,                    !- Cell Minimum  Water Flow Rate Fraction
    2.5,                     !- Cell Maximum Water Flow Rate Fraction
    1,                       !- Sizing Factor
    General;                 !- End-Use Subcategory


!-   ===========  ALL OBJECTS IN CLASS: COOLINGTOWER:VARIABLESPEED ===========

CoolingTower:VariableSpeed,
    ,                        !- Name
    ,                        !- Water Inlet Node Name
    ,                        !- Water Outlet Node Name
    YorkCalc,                !- Model Type
    ,                        !- Model Coefficient Name
    25.6,                    !- Design Inlet Air Wet-Bulb Temperature {C}
    3.9,                     !- Design Approach Temperature {deltaC}
    5.6,                     !- Design Range Temperature {deltaC}
    ,                        !- Design Water Flow Rate {m3/s}
    ,                        !- Design Air Flow Rate {m3/s}
    ,                        !- Design Fan Power {W}
    ,                        !- Fan Power Ratio Function of Air Flow Rate Ratio Curve Name
    0.2,                     !- Minimum Air Flow Rate Ratio
    0.125,                   !- Fraction of Tower Capacity in Free Convection Regime
    ,                        !- Basin Heater Capacity {W/K}
    2,                       !- Basin Heater Setpoint Temperature {C}
    ,                        !- Basin Heater Operating Schedule Name
    ,                        !- Evaporation Loss Mode
    0.2,                     !- Evaporation Loss Factor {percent/K}
    ,                        !- Drift Loss Percent {percent}
    ,                        !- Blowdown Calculation Mode
    3,                       !- Blowdown Concentration Ratio
    ,                        !- Blowdown Makeup Water Usage Schedule Name
    ,                        !- Supply Water Storage Tank Name
    ,                        !- Outdoor Air Inlet Node Name
    1,                       !- Number of Cells
    MinimalCell,             !- Cell Control
    0.33,                    !- Cell Minimum  Water Flow Rate Fraction
    2.5,                     !- Cell Maximum Water Flow Rate Fraction
    1,                       !- Sizing Factor
    General;                 !- End-Use Subcategory


!-   ===========  ALL OBJECTS IN CLASS: COOLINGTOWERPERFORMANCE:COOLTOOLS ===========

CoolingTowerPerformance:CoolTools,
    ,                        !- Name
    ,                        !- Minimum Inlet Air Wet-Bulb Temperature {C}
    ,                        !- Maximum Inlet Air Wet-Bulb Temperature {C}
    ,                        !- Minimum Range Temperature {deltaC}
    ,                        !- Maximum Range Temperature {deltaC}
    ,                        !- Minimum Approach Temperature {deltaC}
    ,                        !- Maximum Approach Temperature {deltaC}
    ,                        !- Minimum Water Flow Rate Ratio
    ,                        !- Maximum Water Flow Rate Ratio
    ,                        !- Coefficient 1
    ,                        !- Coefficient 2
    ,                        !- Coefficient 3
    ,                        !- Coefficient 4
    ,                        !- Coefficient 5
    ,                        !- Coefficient 6
    ,                        !- Coefficient 7
    ,                        !- Coefficient 8
    ,                        !- Coefficient 9
    ,                        !- Coefficient 10
    ,                        !- Coefficient 11
    ,                        !- Coefficient 12
    ,                        !- Coefficient 13
    ,                        !- Coefficient 14
    ,                        !- Coefficient 15
    ,                        !- Coefficient 16
    ,                        !- Coefficient 17
    ,                        !- Coefficient 18
    ,                        !- Coefficient 19
    ,                        !- Coefficient 20
    ,                        !- Coefficient 21
    ,                        !- Coefficient 22
    ,                        !- Coefficient 23
    ,                        !- Coefficient 24
    ,                        !- Coefficient 25
    ,                        !- Coefficient 26
    ,                        !- Coefficient 27
    ,                        !- Coefficient 28
    ,                        !- Coefficient 29
    ,                        !- Coefficient 30
    ,                        !- Coefficient 31
    ,                        !- Coefficient 32
    ,                        !- Coefficient 33
    ,                        !- Coefficient 34
    ;                        !- Coefficient 35


!-   ===========  ALL OBJECTS IN CLASS: COOLINGTOWERPERFORMANCE:YORKCALC ===========

CoolingTowerPerformance:YorkCalc,
    ,                        !- Name
    ,                        !- Minimum Inlet Air Wet-Bulb Temperature {C}
    ,                        !- Maximum Inlet Air Wet-Bulb Temperature {C}
    ,                        !- Minimum Range Temperature {deltaC}
    ,                        !- Maximum Range Temperature {deltaC}
    ,                        !- Minimum Approach Temperature {deltaC}
    ,                        !- Maximum Approach Temperature {deltaC}
    ,                        !- Minimum Water Flow Rate Ratio
    ,                        !- Maximum Water Flow Rate Ratio
    ,                        !- Maximum Liquid to Gas Ratio
    ,                        !- Coefficient 1
    ,                        !- Coefficient 2
    ,                        !- Coefficient 3
    ,                        !- Coefficient 4
    ,                        !- Coefficient 5
    ,                        !- Coefficient 6
    ,                        !- Coefficient 7
    ,                        !- Coefficient 8
    ,                        !- Coefficient 9
    ,                        !- Coefficient 10
    ,                        !- Coefficient 11
    ,                        !- Coefficient 12
    ,                        !- Coefficient 13
    ,                        !- Coefficient 14
    ,                        !- Coefficient 15
    ,                        !- Coefficient 16
    ,                        !- Coefficient 17
    ,                        !- Coefficient 18
    ,                        !- Coefficient 19
    ,                        !- Coefficient 20
    ,                        !- Coefficient 21
    ,                        !- Coefficient 22
    ,                        !- Coefficient 23
    ,                        !- Coefficient 24
    ,                        !- Coefficient 25
    ,                        !- Coefficient 26
    ;                        !- Coefficient 27


!-   ===========  ALL OBJECTS IN CLASS: EVAPORATIVEFLUIDCOOLER:SINGLESPEED ===========

EvaporativeFluidCooler:SingleSpeed,
    ,                        !- Name
    ,                        !- Water Inlet Node Name
    ,                        !- Water Outlet Node Name
    ,                        !- Design Air Flow Rate {m3/s}
    ,                        !- Design Air Flow Rate Fan Power {W}
    ,                        !- Design Spray Water Flow Rate {m3/s}
    ,                        !- Performance Input Method
    ,                        !- Outdoor Air Inlet Node Name
    1.25,                    !- Heat Rejection Capacity and Nominal Capacity Sizing Ratio
    ,                        !- Standard Design Capacity {W}
    ,                        !- Design Air Flow Rate U-factor Times Area Value {W/K}
    ,                        !- Design Water Flow Rate {m3/s}
    ,                        !- User Specified Design Capacity {W}
    ,                        !- Design Entering Water Temperature {C}
    ,                        !- Design Entering Air Temperature {C}
    ,                        !- Design Entering Air Wet-bulb Temperature {C}
    FanCycling,              !- Capacity Control
    1,                       !- Sizing Factor
    SaturatedExit,           !- Evaporation Loss Mode
    ,                        !- Evaporation Loss Factor {percent/K}
    0.008,                   !- Drift Loss Percent {percent}
    ConcentrationRatio,      !- Blowdown Calculation Mode
    3;                       !- Blowdown Concentration Ratio


!-   ===========  ALL OBJECTS IN CLASS: EVAPORATIVEFLUIDCOOLER:TWOSPEED ===========

EvaporativeFluidCooler:TwoSpeed,
    ,                        !- Name
    ,                        !- Water Inlet Node Name
    ,                        !- Water Outlet Node Name
    ,                        !- High Fan Speed Air Flow Rate {m3/s}
    ,                        !- High Fan Speed Fan Power {W}
    ,                        !- Low Fan Speed Air Flow Rate {m3/s}
    0.5,                     !- Low Fan Speed Air Flow Rate Sizing Factor
    ,                        !- Low Fan Speed Fan Power {W}
    0.16,                    !- Low Fan Speed Fan Power Sizing Factor
    ,                        !- Design Spray Water Flow Rate {m3/s}
    ,                        !- Performance Input Method
    ,                        !- Outdoor Air Inlet Node Name
    1.25,                    !- Heat Rejection Capacity and Nominal Capacity Sizing Ratio
    ,                        !- High Speed Standard Design Capacity {W}
    ,                        !- Low Speed Standard Design Capacity {W}
    0.5,                     !- Low Speed Standard Capacity Sizing Factor
    ,                        !- High Fan Speed U-factor Times Area Value {W/K}
    ,                        !- Low Fan Speed U-factor Times Area Value {W/K}
    0.6,                     !- Low Fan Speed U-Factor Times Area Sizing Factor
    ,                        !- Design Water Flow Rate {m3/s}
    ,                        !- High Speed User Specified Design Capacity {W}
    ,                        !- Low Speed User Specified Design Capacity {W}
    0.5,                     !- Low Speed User Specified Design Capacity Sizing Factor
    ,                        !- Design Entering Water Temperature {C}
    ,                        !- Design Entering Air Temperature {C}
    ,                        !- Design Entering Air Wet-bulb Temperature {C}
    1,                       !- High Speed Sizing Factor
    SaturatedExit,           !- Evaporation Loss Mode
    ,                        !- Evaporation Loss Factor {percent/K}
    0.008,                   !- Drift Loss Percent {percent}
    ConcentrationRatio,      !- Blowdown Calculation Mode
    3;                       !- Blowdown Concentration Ratio


!-   ===========  ALL OBJECTS IN CLASS: FLUIDCOOLER:SINGLESPEED ===========

FluidCooler:SingleSpeed,
    ,                        !- Name
    ,                        !- Water Inlet Node Name
    ,                        !- Water Outlet Node Name
    NominalCapacity,         !- Performance Input Method
    ,                        !- Design Air Flow Rate U-factor Times Area Value {W/K}
    ,                        !- Nominal Capacity {W}
    ,                        !- Design Entering Water Temperature {C}
    ,                        !- Design Entering Air Temperature {C}
    ,                        !- Design Entering Air Wetbulb Temperature {C}
    ,                        !- Design Water Flow Rate {m3/s}
    ,                        !- Design Air Flow Rate {m3/s}
    ;                        !- Design Air Flow Rate Fan Power {W}


!-   ===========  ALL OBJECTS IN CLASS: FLUIDCOOLER:TWOSPEED ===========

FluidCooler:TwoSpeed,
    ,                        !- Name
    ,                        !- Water Inlet Node Name
    ,                        !- Water Outlet Node Name
    NominalCapacity,         !- Performance Input Method
    ,                        !- High Fan Speed U-factor Times Area Value {W/K}
    ,                        !- Low Fan Speed U-factor Times Area Value {W/K}
    0.6,                     !- Low Fan Speed U-Factor Times Area Sizing Factor
    ,                        !- High Speed Nominal Capacity {W}
    ,                        !- Low Speed Nominal Capacity {W}
    0.5,                     !- Low Speed Nominal Capacity Sizing Factor
    ,                        !- Design Entering Water Temperature {C}
    ,                        !- Design Entering Air Temperature {C}
    ,                        !- Design Entering Air Wet-bulb Temperature {C}
    ,                        !- Design Water Flow Rate {m3/s}
    ,                        !- High Fan Speed Air Flow Rate {m3/s}
    ,                        !- High Fan Speed Fan Power {W}
    ,                        !- Low Fan Speed Air Flow Rate {m3/s}
    0.5,                     !- Low Fan Speed Air Flow Rate Sizing Factor
    ,                        !- Low Fan Speed Fan Power {W}
    0.16;                    !- Low Fan Speed Fan Power Sizing Factor


!-   ===========  ALL OBJECTS IN CLASS: GROUNDHEATEXCHANGER:SYSTEM ===========

GroundHeatExchanger:System,
    ,                        !- Name
    ,                        !- Inlet Node Name
    ,                        !- Outlet Node Name
    ,                        !- Design Flow Rate {m3/s}
    ,                        !- Undisturbed Ground Temperature Model Type
    ,                        !- Undisturbed Ground Temperature Model Name
    ,                        !- Ground Thermal Conductivity {W/m-K}
    ,                        !- Ground Thermal Heat Capacity {J/m3-K}
    ,                        !- GHE:Vertical:ResponseFactors Object Name
    UHFcalc;                 !- g-Function Calculation Method


!-   ===========  ALL OBJECTS IN CLASS: GROUNDHEATEXCHANGER:VERTICAL:PROPERTIES ===========

GroundHeatExchanger:Vertical:Properties,
    ,                        !- Name
    ,                        !- Depth of Top of Borehole {m}
    ,                        !- Borehole Length {m}
    ,                        !- Borehole Diameter {m}
    ,                        !- Grout Thermal Conductivity {W/m-K}
    ,                        !- Grout Thermal Heat Capacity {J/m3-K}
    ,                        !- Pipe Thermal Conductivity {W/m-K}
    ,                        !- Pipe Thermal Heat Capacity {J/m3-K}
    ,                        !- Pipe Outer Diameter {m}
    ,                        !- Pipe Thickness {m}
    ;                        !- U-Tube Distance {m}


!-   ===========  ALL OBJECTS IN CLASS: GROUNDHEATEXCHANGER:VERTICAL:ARRAY ===========

GroundHeatExchanger:Vertical:Array,
    ;                        !- Name


!-   ===========  ALL OBJECTS IN CLASS: GROUNDHEATEXCHANGER:VERTICAL:SINGLE ===========

GroundHeatExchanger:Vertical:Single,
    ;                        !- Name


!-   ===========  ALL OBJECTS IN CLASS: GROUNDHEATEXCHANGER:RESPONSEFACTORS ===========

GroundHeatExchanger:ResponseFactors,
    ,                        !- Name
    ,                        !- GHE:Vertical:Properties Object Name
    ,                        !- Number of Boreholes
    0.0005,                  !- G-Function Reference Ratio {dimensionless}
    ;                        !- g-Function Ln(T/Ts) Value 1


!-   ===========  ALL OBJECTS IN CLASS: GROUNDHEATEXCHANGER:POND ===========

GroundHeatExchanger:Pond,
    ;                        !- Name


!-   ===========  ALL OBJECTS IN CLASS: GROUNDHEATEXCHANGER:SURFACE ===========

GroundHeatExchanger:Surface,
    ,                        !- Name
    ,                        !- Construction Name
    ,                        !- Fluid Inlet Node Name
    ,                        !- Fluid Outlet Node Name
    ,                        !- Hydronic Tubing Inside Diameter {m}
    ,                        !- Number of Tubing Circuits
    ,                        !- Hydronic Tube Spacing {m}
    ,                        !- Surface Length {m}
    ,                        !- Surface Width {m}
    Ground;                  !- Lower Surface Environment


!-   ===========  ALL OBJECTS IN CLASS: GROUNDHEATEXCHANGER:HORIZONTALTRENCH ===========

GroundHeatExchanger:HorizontalTrench,
    ,                        !- Name
    ,                        !- Inlet Node Name
    ,                        !- Outlet Node Name
    ,                        !- Design Flow Rate {m3/s}
    50,                      !- Trench Length in Pipe Axial Direction {m}
    1,                       !- Number of Trenches
    1,                       !- Horizontal Spacing Between Pipes {m}
    0.016,                   !- Pipe Inner Diameter {m}
    0.026,                   !- Pipe Outer Diameter {m}
    1.5,                     !- Burial Depth {m}
    1.08,                    !- Soil Thermal Conductivity {W/m-K}
    962,                     !- Soil Density {kg/m3}
    2576,                    !- Soil Specific Heat {J/kg-K}
    0.3895,                  !- Pipe Thermal Conductivity {W/m-K}
    641,                     !- Pipe Density {kg/m3}
    2405,                    !- Pipe Specific Heat {J/kg-K}
    30,                      !- Soil Moisture Content Percent {percent}
    50,                      !- Soil Moisture Content Percent at Saturation {percent}
    ,                        !- Undisturbed Ground Temperature Model Type
    ,                        !- Undisturbed Ground Temperature Model Name
    0.4;                     !- Evapotranspiration Ground Cover Parameter


!-   ===========  ALL OBJECTS IN CLASS: GROUNDHEATEXCHANGER:SLINKY ===========

GroundHeatExchanger:Slinky,
    ,                        !- Name
    ,                        !- Inlet Node Name
    ,                        !- Outlet Node Name
    0.002,                   !- Design Flow Rate {m3/s}
    1.08,                    !- Soil Thermal Conductivity {W/m-K}
    962,                     !- Soil Density {kg/m3}
    2576,                    !- Soil Specific Heat {J/kg-K}
    0.4,                     !- Pipe Thermal Conductivity {W/m-K}
    641,                     !- Pipe Density {kg/m3}
    2405,                    !- Pipe Specific Heat {J/kg-K}
    0.02667,                 !- Pipe Outer Diameter {m}
    0.002413,                !- Pipe Thickness {m}
    ,                        !- Heat Exchanger Configuration
    1,                       !- Coil Diameter {m}
    0.2,                     !- Coil Pitch {m}
    1.8,                     !- Trench Depth {m}
    10,                      !- Trench Length {m}
    1,                       !- Number of Trenches
    2,                       !- Horizontal Spacing Between Pipes {m}
    ,                        !- Undisturbed Ground Temperature Model Type
    ;                        !- Undisturbed Ground Temperature Model Name


!-   ===========  ALL OBJECTS IN CLASS: HEATEXCHANGER:FLUIDTOFLUID ===========

HeatExchanger:FluidToFluid,
    ,                        !- Name
    ,                        !- Availability Schedule Name
    ,                        !- Loop Demand Side Inlet Node Name
    ,                        !- Loop Demand Side Outlet Node Name
    ,                        !- Loop Demand Side Design Flow Rate {m3/s}
    ,                        !- Loop Supply Side Inlet Node Name
    ,                        !- Loop Supply Side Outlet Node Name
    ,                        !- Loop Supply Side Design Flow Rate {m3/s}
    Ideal,                   !- Heat Exchange Model Type
    ,                        !- Heat Exchanger U-Factor Times Area Value {W/K}
    UncontrolledOn,          !- Control Type
    ,                        !- Heat Exchanger Setpoint Node Name
    0.01,                    !- Minimum Temperature Difference to Activate Heat Exchanger {deltaC}
    LoopToLoop,              !- Heat Transfer Metering End Use Type
    ,                        !- Component Override Loop Supply Side Inlet Node Name
    ,                        !- Component Override Loop Demand Side Inlet Node Name
    Loop,                    !- Component Override Cooling Control Temperature Mode
    1;                       !- Sizing Factor


!-   ===========  ALL OBJECTS IN CLASS: WATERHEATER:MIXED ===========

WaterHeater:Mixed,
    ,                        !- Name
    ,                        !- Tank Volume {m3}
    ,                        !- Setpoint Temperature Schedule Name
    ,                        !- Deadband Temperature Difference {deltaC}
    ,                        !- Maximum Temperature Limit {C}
    Cycle,                   !- Heater Control Type
    ,                        !- Heater Maximum Capacity {W}
    ,                        !- Heater Minimum Capacity {W}
    ,                        !- Heater Ignition Minimum Flow Rate {m3/s}
    ,                        !- Heater Ignition Delay {s}
    ,                        !- Heater Fuel Type
    ,                        !- Heater Thermal Efficiency
    ,                        !- Part Load Factor Curve Name
    ,                        !- Off Cycle Parasitic Fuel Consumption Rate {W}
    ,                        !- Off Cycle Parasitic Fuel Type
    ,                        !- Off Cycle Parasitic Heat Fraction to Tank
    ,                        !- On Cycle Parasitic Fuel Consumption Rate {W}
    ,                        !- On Cycle Parasitic Fuel Type
    ,                        !- On Cycle Parasitic Heat Fraction to Tank
    ,                        !- Ambient Temperature Indicator
    ,                        !- Ambient Temperature Schedule Name
    ,                        !- Ambient Temperature Zone Name
    ,                        !- Ambient Temperature Outdoor Air Node Name
    ,                        !- Off Cycle Loss Coefficient to Ambient Temperature {W/K}
    1,                       !- Off Cycle Loss Fraction to Zone
    ,                        !- On Cycle Loss Coefficient to Ambient Temperature {W/K}
    1,                       !- On Cycle Loss Fraction to Zone
    ,                        !- Peak Use Flow Rate {m3/s}
    ,                        !- Use Flow Rate Fraction Schedule Name
    ,                        !- Cold Water Supply Temperature Schedule Name
    ,                        !- Use Side Inlet Node Name
    ,                        !- Use Side Outlet Node Name
    1,                       !- Use Side Effectiveness
    ,                        !- Source Side Inlet Node Name
    ,                        !- Source Side Outlet Node Name
    1,                       !- Source Side Effectiveness
    autosize,                !- Use Side Design Flow Rate {m3/s}
    autosize,                !- Source Side Design Flow Rate {m3/s}
    1.5,                     !- Indirect Water Heating Recovery Time {hr}
    IndirectHeatPrimarySetpoint,  !- Source Side Flow Control Mode
    ,                        !- Indirect Alternate Setpoint Temperature Schedule Name
    General;                 !- End-Use Subcategory


!-   ===========  ALL OBJECTS IN CLASS: WATERHEATER:STRATIFIED ===========

WaterHeater:Stratified,
    ,                        !- Name
    General,                 !- End-Use Subcategory
    ,                        !- Tank Volume {m3}
    ,                        !- Tank Height {m}
    VerticalCylinder,        !- Tank Shape
    ,                        !- Tank Perimeter {m}
    ,                        !- Maximum Temperature Limit {C}
    MasterSlave,             !- Heater Priority Control
    ,                        !- Heater 1 Setpoint Temperature Schedule Name
    ,                        !- Heater 1 Deadband Temperature Difference {deltaC}
    ,                        !- Heater 1 Capacity {W}
    ,                        !- Heater 1 Height {m}
    ,                        !- Heater 2 Setpoint Temperature Schedule Name
    ,                        !- Heater 2 Deadband Temperature Difference {deltaC}
    ,                        !- Heater 2 Capacity {W}
    ,                        !- Heater 2 Height {m}
    ,                        !- Heater Fuel Type
    ,                        !- Heater Thermal Efficiency
    ,                        !- Off Cycle Parasitic Fuel Consumption Rate {W}
    ,                        !- Off Cycle Parasitic Fuel Type
    ,                        !- Off Cycle Parasitic Heat Fraction to Tank
    ,                        !- Off Cycle Parasitic Height {m}
    ,                        !- On Cycle Parasitic Fuel Consumption Rate {W}
    ,                        !- On Cycle Parasitic Fuel Type
    ,                        !- On Cycle Parasitic Heat Fraction to Tank
    ,                        !- On Cycle Parasitic Height {m}
    ,                        !- Ambient Temperature Indicator
    ,                        !- Ambient Temperature Schedule Name
    ,                        !- Ambient Temperature Zone Name
    ,                        !- Ambient Temperature Outdoor Air Node Name
    ,                        !- Uniform Skin Loss Coefficient per Unit Area to Ambient Temperature {W/m2-K}
    1,                       !- Skin Loss Fraction to Zone
    ,                        !- Off Cycle Flue Loss Coefficient to Ambient Temperature {W/K}
    1,                       !- Off Cycle Flue Loss Fraction to Zone
    ,                        !- Peak Use Flow Rate {m3/s}
    ,                        !- Use Flow Rate Fraction Schedule Name
    ,                        !- Cold Water Supply Temperature Schedule Name
    ,                        !- Use Side Inlet Node Name
    ,                        !- Use Side Outlet Node Name
    1,                       !- Use Side Effectiveness
    ,                        !- Use Side Inlet Height {m}
    autocalculate,           !- Use Side Outlet Height {m}
    ,                        !- Source Side Inlet Node Name
    ,                        !- Source Side Outlet Node Name
    1,                       !- Source Side Effectiveness
    autocalculate,           !- Source Side Inlet Height {m}
    ,                        !- Source Side Outlet Height {m}
    Fixed,                   !- Inlet Mode
    autosize,                !- Use Side Design Flow Rate {m3/s}
    autosize,                !- Source Side Design Flow Rate {m3/s}
    1.5,                     !- Indirect Water Heating Recovery Time {hr}
    1,                       !- Number of Nodes
    ,                        !- Additional Destratification Conductivity {W/m-K}
    ,                        !- Node 1 Additional Loss Coefficient {W/K}
    ,                        !- Node 2 Additional Loss Coefficient {W/K}
    ,                        !- Node 3 Additional Loss Coefficient {W/K}
    ,                        !- Node 4 Additional Loss Coefficient {W/K}
    ,                        !- Node 5 Additional Loss Coefficient {W/K}
    ,                        !- Node 6 Additional Loss Coefficient {W/K}
    ,                        !- Node 7 Additional Loss Coefficient {W/K}
    ,                        !- Node 8 Additional Loss Coefficient {W/K}
    ,                        !- Node 9 Additional Loss Coefficient {W/K}
    ,                        !- Node 10 Additional Loss Coefficient {W/K}
    ,                        !- Node 11 Additional Loss Coefficient {W/K}
    ,                        !- Node 12 Additional Loss Coefficient {W/K}
    IndirectHeatPrimarySetpoint;  !- Source Side Flow Control Mode


!-   ===========  ALL OBJECTS IN CLASS: WATERHEATER:SIZING ===========

WaterHeater:Sizing,
    ,                        !- WaterHeater Name
    ,                        !- Design Mode
    ,                        !- Time Storage Can Meet Peak Draw {hr}
    ;                        !- Time for Tank Recovery {hr}


!-   ===========  ALL OBJECTS IN CLASS: WATERHEATER:HEATPUMP:PUMPEDCONDENSER ===========

WaterHeater:HeatPump:PumpedCondenser,
    ,                        !- Name
    ,                        !- Availability Schedule Name
    ,                        !- Compressor Setpoint Temperature Schedule Name
    5,                       !- Dead Band Temperature Difference {deltaC}
    ,                        !- Condenser Water Inlet Node Name
    ,                        !- Condenser Water Outlet Node Name
    ,                        !- Condenser Water Flow Rate {m3/s}
    ,                        !- Evaporator Air Flow Rate {m3/s}
    ,                        !- Inlet Air Configuration
    ,                        !- Air Inlet Node Name
    ,                        !- Air Outlet Node Name
    ,                        !- Outdoor Air Node Name
    ,                        !- Exhaust Air Node Name
    ,                        !- Inlet Air Temperature Schedule Name
    ,                        !- Inlet Air Humidity Schedule Name
    ,                        !- Inlet Air Zone Name
    WaterHeater:Mixed,       !- Tank Object Type
    ,                        !- Tank Name
    ,                        !- Tank Use Side Inlet Node Name
    ,                        !- Tank Use Side Outlet Node Name
    Coil:WaterHeating:AirToWaterHeatPump:Pumped,  !- DX Coil Object Type
    ,                        !- DX Coil Name
    10,                      !- Minimum Inlet Air Temperature for Compressor Operation {C}
    48.88888888889,          !- Maximum Inlet Air Temperature for Compressor Operation {C}
    ,                        !- Compressor Location
    ,                        !- Compressor Ambient Temperature Schedule Name
    Fan:OnOff,               !- Fan Object Type
    ,                        !- Fan Name
    DrawThrough,             !- Fan Placement
    ,                        !- On Cycle Parasitic Electric Load {W}
    ,                        !- Off Cycle Parasitic Electric Load {W}
    Outdoors,                !- Parasitic Heat Rejection Location
    ,                        !- Inlet Air Mixer Node Name
    ,                        !- Outlet Air Splitter Node Name
    ,                        !- Inlet Air Mixer Schedule Name
    Simultaneous,            !- Tank Element Control Logic
    ,                        !- Control Sensor 1 Height In Stratified Tank {m}
    1;                       !- Control Sensor 1 Weight {dimensionless}


!-   ===========  ALL OBJECTS IN CLASS: WATERHEATER:HEATPUMP:WRAPPEDCONDENSER ===========

WaterHeater:HeatPump:WrappedCondenser,
    ,                        !- Name
    ,                        !- Availability Schedule Name
    ,                        !- Compressor Setpoint Temperature Schedule Name
    5,                       !- Dead Band Temperature Difference {deltaC}
    ,                        !- Condenser Bottom Location {m}
    ,                        !- Condenser Top Location {m}
    ,                        !- Evaporator Air Flow Rate {m3/s}
    ,                        !- Inlet Air Configuration
    ,                        !- Air Inlet Node Name
    ,                        !- Air Outlet Node Name
    ,                        !- Outdoor Air Node Name
    ,                        !- Exhaust Air Node Name
    ,                        !- Inlet Air Temperature Schedule Name
    ,                        !- Inlet Air Humidity Schedule Name
    ,                        !- Inlet Air Zone Name
    WaterHeater:Stratified,  !- Tank Object Type
    ,                        !- Tank Name
    ,                        !- Tank Use Side Inlet Node Name
    ,                        !- Tank Use Side Outlet Node Name
    Coil:WaterHeating:AirToWaterHeatPump:Wrapped,  !- DX Coil Object Type
    ,                        !- DX Coil Name
    10,                      !- Minimum Inlet Air Temperature for Compressor Operation {C}
    48.88888888889,          !- Maximum Inlet Air Temperature for Compressor Operation {C}
    ,                        !- Compressor Location
    ,                        !- Compressor Ambient Temperature Schedule Name
    Fan:OnOff,               !- Fan Object Type
    ,                        !- Fan Name
    DrawThrough,             !- Fan Placement
    ,                        !- On Cycle Parasitic Electric Load {W}
    ,                        !- Off Cycle Parasitic Electric Load {W}
    Outdoors,                !- Parasitic Heat Rejection Location
    ,                        !- Inlet Air Mixer Node Name
    ,                        !- Outlet Air Splitter Node Name
    ,                        !- Inlet Air Mixer Schedule Name
    Simultaneous,            !- Tank Element Control Logic
    ,                        !- Control Sensor 1 Height In Stratified Tank {m}
    1;                       !- Control Sensor 1 Weight {dimensionless}


!-   ===========  ALL OBJECTS IN CLASS: THERMALSTORAGE:ICE:SIMPLE ===========

ThermalStorage:Ice:Simple,
    ,                        !- Name
    ,                        !- Ice Storage Type
    ,                        !- Capacity {GJ}
    ,                        !- Inlet Node Name
    ;                        !- Outlet Node Name


!-   ===========  ALL OBJECTS IN CLASS: THERMALSTORAGE:ICE:DETAILED ===========

ThermalStorage:Ice:Detailed,
    ,                        !- Name
    ,                        !- Availability Schedule Name
    ,                        !- Capacity {GJ}
    ,                        !- Inlet Node Name
    ,                        !- Outlet Node Name
    ,                        !- Discharging Curve Variable Specifications
    ,                        !- Discharging Curve Name
    ,                        !- Charging Curve Variable Specifications
    ,                        !- Charging Curve Name
    ,                        !- Timestep of the Curve Data {hr}
    ,                        !- Parasitic Electric Load During Discharging {dimensionless}
    ,                        !- Parasitic Electric Load During Charging {dimensionless}
    ,                        !- Tank Loss Coefficient {dimensionless}
    ,                        !- Freezing Temperature of Storage Medium {C}
    OutsideMelt;             !- Thaw Process Indicator


!-   ===========  ALL OBJECTS IN CLASS: THERMALSTORAGE:CHILLEDWATER:MIXED ===========

ThermalStorage:ChilledWater:Mixed,
    ,                        !- Name
    0.1,                     !- Tank Volume {m3}
    ,                        !- Setpoint Temperature Schedule Name
    0.5,                     !- Deadband Temperature Difference {deltaC}
    ,                        !- Minimum Temperature Limit {C}
    ,                        !- Nominal Cooling Capacity {W}
    ,                        !- Ambient Temperature Indicator
    ,                        !- Ambient Temperature Schedule Name
    ,                        !- Ambient Temperature Zone Name
    ,                        !- Ambient Temperature Outdoor Air Node Name
    ,                        !- Heat Gain Coefficient from Ambient Temperature {W/K}
    ,                        !- Use Side Inlet Node Name
    ,                        !- Use Side Outlet Node Name
    1,                       !- Use Side Heat Transfer Effectiveness
    ,                        !- Use Side Availability Schedule Name
    autosize,                !- Use Side Design Flow Rate {m3/s}
    ,                        !- Source Side Inlet Node Name
    ,                        !- Source Side Outlet Node Name
    1,                       !- Source Side Heat Transfer Effectiveness
    ,                        !- Source Side Availability Schedule Name
    autosize,                !- Source Side Design Flow Rate {m3/s}
    4;                       !- Tank Recovery Time {hr}


!-   ===========  ALL OBJECTS IN CLASS: THERMALSTORAGE:CHILLEDWATER:STRATIFIED ===========

ThermalStorage:ChilledWater:Stratified,
    ,                        !- Name
    ,                        !- Tank Volume {m3}
    ,                        !- Tank Height {m}
    VerticalCylinder,        !- Tank Shape
    ,                        !- Tank Perimeter {m}
    ,                        !- Setpoint Temperature Schedule Name
    ,                        !- Deadband Temperature Difference {deltaC}
    ,                        !- Temperature Sensor Height {m}
    ,                        !- Minimum Temperature Limit {C}
    ,                        !- Nominal Cooling Capacity {W}
    ,                        !- Ambient Temperature Indicator
    ,                        !- Ambient Temperature Schedule Name
    ,                        !- Ambient Temperature Zone Name
    ,                        !- Ambient Temperature Outdoor Air Node Name
    ,                        !- Uniform Skin Loss Coefficient per Unit Area to Ambient Temperature {W/m2-K}
    ,                        !- Use Side Inlet Node Name
    ,                        !- Use Side Outlet Node Name
    1,                       !- Use Side Heat Transfer Effectiveness
    ,                        !- Use Side Availability Schedule Name
    autocalculate,           !- Use Side Inlet Height {m}
    ,                        !- Use Side Outlet Height {m}
    autosize,                !- Use Side Design Flow Rate {m3/s}
    ,                        !- Source Side Inlet Node Name
    ,                        !- Source Side Outlet Node Name
    1,                       !- Source Side Heat Transfer Effectiveness
    ,                        !- Source Side Availability Schedule Name
    ,                        !- Source Side Inlet Height {m}
    autocalculate,           !- Source Side Outlet Height {m}
    autosize,                !- Source Side Design Flow Rate {m3/s}
    4,                       !- Tank Recovery Time {hr}
    Fixed,                   !- Inlet Mode
    1;                       !- Number of Nodes


!-   ===========  ALL OBJECTS IN CLASS: PLANTLOOP ===========

PlantLoop,
    ,                        !- Name
    Water,                   !- Fluid Type
    ,                        !- User Defined Fluid Type
    ,                        !- Plant Equipment Operation Scheme Name
    ,                        !- Loop Temperature Setpoint Node Name
    ,                        !- Maximum Loop Temperature {C}
    ,                        !- Minimum Loop Temperature {C}
    ,                        !- Maximum Loop Flow Rate {m3/s}
    ,                        !- Minimum Loop Flow Rate {m3/s}
    autocalculate,           !- Plant Loop Volume {m3}
    ,                        !- Plant Side Inlet Node Name
    ,                        !- Plant Side Outlet Node Name
    ,                        !- Plant Side Branch List Name
    ,                        !- Plant Side Connector List Name
    ,                        !- Demand Side Inlet Node Name
    ,                        !- Demand Side Outlet Node Name
    ,                        !- Demand Side Branch List Name
    ,                        !- Demand Side Connector List Name
    SequentialLoad,          !- Load Distribution Scheme
    ,                        !- Availability Manager List Name
    SingleSetpoint,          !- Plant Loop Demand Calculation Scheme
    None,                    !- Common Pipe Simulation
    None,                    !- Pressure Simulation Type
    2;                       !- Loop Circulation Time {minutes}


!-   ===========  ALL OBJECTS IN CLASS: CONDENSERLOOP ===========

CondenserLoop,
    ,                        !- Name
    Water,                   !- Fluid Type
    ,                        !- User Defined Fluid Type
    ,                        !- Condenser Equipment Operation Scheme Name
    ,                        !- Condenser Loop Temperature Setpoint Node Name
    ,                        !- Maximum Loop Temperature {C}
    ,                        !- Minimum Loop Temperature {C}
    ,                        !- Maximum Loop Flow Rate {m3/s}
    ,                        !- Minimum Loop Flow Rate {m3/s}
    autocalculate,           !- Condenser Loop Volume {m3}
    ,                        !- Condenser Side Inlet Node Name
    ,                        !- Condenser Side Outlet Node Name
    ,                        !- Condenser Side Branch List Name
    ,                        !- Condenser Side Connector List Name
    ,                        !- Demand Side Inlet Node Name
    ,                        !- Demand Side Outlet Node Name
    ,                        !- Condenser Demand Side Branch List Name
    ,                        !- Condenser Demand Side Connector List Name
    SequentialLoad,          !- Load Distribution Scheme
    None,                    !- Pressure Simulation Type
    2;                       !- Loop Circulation Time {minutes}


!-   ===========  ALL OBJECTS IN CLASS: PLANTEQUIPMENTLIST ===========

PlantEquipmentList,
    ;                        !- Name


!-   ===========  ALL OBJECTS IN CLASS: CONDENSEREQUIPMENTLIST ===========

CondenserEquipmentList,
    ;                        !- Name


!-   ===========  ALL OBJECTS IN CLASS: PLANTEQUIPMENTOPERATION:UNCONTROLLED ===========

PlantEquipmentOperation:Uncontrolled,
    ,                        !- Name
    ;                        !- Equipment List Name


!-   ===========  ALL OBJECTS IN CLASS: PLANTEQUIPMENTOPERATION:COOLINGLOAD ===========

PlantEquipmentOperation:CoolingLoad,
    ,                        !- Name
    ,                        !- Load Range 1 Lower Limit {W}
    ,                        !- Load Range 1 Upper Limit {W}
    ;                        !- Range 1 Equipment List Name


!-   ===========  ALL OBJECTS IN CLASS: PLANTEQUIPMENTOPERATION:HEATINGLOAD ===========

PlantEquipmentOperation:HeatingLoad,
    ,                        !- Name
    ,                        !- Load Range 1 Lower Limit {W}
    ,                        !- Load Range 1 Upper Limit {W}
    ;                        !- Range 1 Equipment List Name


!-   ===========  ALL OBJECTS IN CLASS: PLANTEQUIPMENTOPERATION:OUTDOORDRYBULB ===========

PlantEquipmentOperation:OutdoorDryBulb,
    ,                        !- Name
    ,                        !- Dry-Bulb Temperature Range 1 Lower Limit {C}
    ,                        !- Dry-Bulb Temperature Range 1 Upper Limit {C}
    ;                        !- Range 1 Equipment List Name


!-   ===========  ALL OBJECTS IN CLASS: PLANTEQUIPMENTOPERATION:OUTDOORWETBULB ===========

PlantEquipmentOperation:OutdoorWetBulb,
    ,                        !- Name
    ,                        !- Wet-Bulb Temperature Range 1 Lower Limit {C}
    ,                        !- Wet-Bulb Temperature Range 1 Upper Limit {C}
    ;                        !- Range 1 Equipment List Name


!-   ===========  ALL OBJECTS IN CLASS: PLANTEQUIPMENTOPERATION:OUTDOORRELATIVEHUMIDITY ===========

PlantEquipmentOperation:OutdoorRelativeHumidity,
    ,                        !- Name
    ,                        !- Relative Humidity Range 1 Lower Limit {percent}
    ,                        !- Relative Humidity Range 1 Upper Limit {percent}
    ;                        !- Range 1 Equipment List Name


!-   ===========  ALL OBJECTS IN CLASS: PLANTEQUIPMENTOPERATION:OUTDOORDEWPOINT ===========

PlantEquipmentOperation:OutdoorDewpoint,
    ,                        !- Name
    ,                        !- Dewpoint Temperature Range 1 Lower Limit {C}
    ,                        !- Dewpoint Temperature Range 1 Upper Limit {C}
    ;                        !- Range 1 Equipment List Name


!-   ===========  ALL OBJECTS IN CLASS: PLANTEQUIPMENTOPERATION:COMPONENTSETPOINT ===========

PlantEquipmentOperation:ComponentSetpoint,
    ,                        !- Name
    ,                        !- Equipment 1 Object Type
    ,                        !- Equipment 1 Name
    ,                        !- Demand Calculation 1 Node Name
    ,                        !- Setpoint 1 Node Name
    ,                        !- Component 1 Flow Rate {m3/s}
    ;                        !- Operation 1 Type


!-   ===========  ALL OBJECTS IN CLASS: PLANTEQUIPMENTOPERATION:THERMALENERGYSTORAGE ===========

PlantEquipmentOperation:ThermalEnergyStorage,
    ,                        !- Name
    ,                        !- On-Peak Schedule
    ,                        !- Charging Availability Schedule
    ,                        !- Non-Charging Chilled Water Temperature {C}
    ,                        !- Charging Chilled Water Temperature {C}
    ,                        !- Component 1 Object Type
    ;                        !- Component 1 Name


!-   ===========  ALL OBJECTS IN CLASS: PLANTEQUIPMENTOPERATION:OUTDOORDRYBULBDIFFERENCE ===========

PlantEquipmentOperation:OutdoorDryBulbDifference,
    ,                        !- Name
    ,                        !- Reference Temperature Node Name
    ,                        !- Dry-Bulb Temperature Difference Range 1 Lower Limit {deltaC}
    ,                        !- Dry-Bulb Temperature Difference Range 1 Upper Limit {deltaC}
    ;                        !- Range 1 Equipment List Name


!-   ===========  ALL OBJECTS IN CLASS: PLANTEQUIPMENTOPERATION:OUTDOORWETBULBDIFFERENCE ===========

PlantEquipmentOperation:OutdoorWetBulbDifference,
    ,                        !- Name
    ,                        !- Reference Temperature Node Name
    ,                        !- Wet-Bulb Temperature Difference Range 1 Lower Limit {deltaC}
    ,                        !- Wet-Bulb Temperature Difference Range 1 Upper Limit {deltaC}
    ;                        !- Range 1 Equipment List Name


!-   ===========  ALL OBJECTS IN CLASS: PLANTEQUIPMENTOPERATION:OUTDOORDEWPOINTDIFFERENCE ===========

PlantEquipmentOperation:OutdoorDewpointDifference,
    ,                        !- Name
    ,                        !- Reference Temperature Node Name
    ,                        !- Dewpoint Temperature Difference Range 1 Lower Limit {deltaC}
    ,                        !- Dewpoint Temperature Difference Range 1 Upper Limit {deltaC}
    ;                        !- Range 1 Equipment List Name


!-   ===========  ALL OBJECTS IN CLASS: PLANTEQUIPMENTOPERATIONSCHEMES ===========

PlantEquipmentOperationSchemes,
    ,                        !- Name
    ,                        !- Control Scheme 1 Object Type
    ,                        !- Control Scheme 1 Name
    ;                        !- Control Scheme 1 Schedule Name


!-   ===========  ALL OBJECTS IN CLASS: CONDENSEREQUIPMENTOPERATIONSCHEMES ===========

CondenserEquipmentOperationSchemes,
    ,                        !- Name
    ,                        !- Control Scheme 1 Object Type
    ,                        !- Control Scheme 1 Name
    ;                        !- Control Scheme 1 Schedule Name


!-   ===========  ALL OBJECTS IN CLASS: ENERGYMANAGEMENTSYSTEM:SENSOR ===========

EnergyManagementSystem:Sensor,
    ,                        !- Name
    ,                        !- Output:Variable or Output:Meter Index Key Name
    ;                        !- Output:Variable or Output:Meter Name


!-   ===========  ALL OBJECTS IN CLASS: ENERGYMANAGEMENTSYSTEM:ACTUATOR ===========

EnergyManagementSystem:Actuator,
    ,                        !- Name
    ,                        !- Actuated Component Unique Name
    ,                        !- Actuated Component Type
    ;                        !- Actuated Component Control Type


!-   ===========  ALL OBJECTS IN CLASS: ENERGYMANAGEMENTSYSTEM:PROGRAMCALLINGMANAGER ===========

EnergyManagementSystem:ProgramCallingManager,
    ,                        !- Name
    ,                        !- EnergyPlus Model Calling Point
    ;                        !- Program Name 1


!-   ===========  ALL OBJECTS IN CLASS: ENERGYMANAGEMENTSYSTEM:PROGRAM ===========

EnergyManagementSystem:Program,
    ,                        !- Name
    ;                        !- Program Line 1


!-   ===========  ALL OBJECTS IN CLASS: ENERGYMANAGEMENTSYSTEM:SUBROUTINE ===========

EnergyManagementSystem:Subroutine,
    ,                        !- Name
    ;                        !- Program Line 1


!-   ===========  ALL OBJECTS IN CLASS: ENERGYMANAGEMENTSYSTEM:GLOBALVARIABLE ===========

EnergyManagementSystem:GlobalVariable,
    ;                        !- Erl Variable 1 Name


!-   ===========  ALL OBJECTS IN CLASS: ENERGYMANAGEMENTSYSTEM:OUTPUTVARIABLE ===========

EnergyManagementSystem:OutputVariable,
    ,                        !- Name
    ,                        !- EMS Variable Name
    ,                        !- Type of Data in Variable
    ;                        !- Update Frequency


!-   ===========  ALL OBJECTS IN CLASS: ENERGYMANAGEMENTSYSTEM:METEREDOUTPUTVARIABLE ===========

EnergyManagementSystem:MeteredOutputVariable,
    ,                        !- Name
    ,                        !- EMS Variable Name
    ,                        !- Update Frequency
    ,                        !- EMS Program or Subroutine Name
    ,                        !- Resource Type
    ,                        !- Group Type
    ;                        !- End-Use Category


!-   ===========  ALL OBJECTS IN CLASS: ENERGYMANAGEMENTSYSTEM:TRENDVARIABLE ===========

EnergyManagementSystem:TrendVariable,
    ,                        !- Name
    ,                        !- EMS Variable Name
    ;                        !- Number of Timesteps to be Logged


!-   ===========  ALL OBJECTS IN CLASS: ENERGYMANAGEMENTSYSTEM:INTERNALVARIABLE ===========

EnergyManagementSystem:InternalVariable,
    ,                        !- Name
    ,                        !- Internal Data Index Key Name
    ;                        !- Internal Data Type


!-   ===========  ALL OBJECTS IN CLASS: ENERGYMANAGEMENTSYSTEM:CURVEORTABLEINDEXVARIABLE ===========

EnergyManagementSystem:CurveOrTableIndexVariable,
    ,                        !- Name
    ;                        !- Curve or Table Object Name


!-   ===========  ALL OBJECTS IN CLASS: ENERGYMANAGEMENTSYSTEM:CONSTRUCTIONINDEXVARIABLE ===========

EnergyManagementSystem:ConstructionIndexVariable,
    ,                        !- Name
    ;                        !- Construction Object Name


!-   ===========  ALL OBJECTS IN CLASS: EXTERNALINTERFACE ===========

ExternalInterface,
    ;                        !- Name of External Interface


!-   ===========  ALL OBJECTS IN CLASS: EXTERNALINTERFACE:SCHEDULE ===========

ExternalInterface:Schedule,
    ,                        !- Name
    ,                        !- Schedule Type Limits Name
    ;                        !- Initial Value


!-   ===========  ALL OBJECTS IN CLASS: EXTERNALINTERFACE:VARIABLE ===========

ExternalInterface:Variable,
    ;                        !- Name


!-   ===========  ALL OBJECTS IN CLASS: EXTERNALINTERFACE:ACTUATOR ===========

ExternalInterface:Actuator,
    ,                        !- Name
    ,                        !- Actuated Component Unique Name
    ,                        !- Actuated Component Type
    ;                        !- Actuated Component Control Type


!-   ===========  ALL OBJECTS IN CLASS: EXTERNALINTERFACE:FUNCTIONALMOCKUPUNITIMPORT ===========

ExternalInterface:FunctionalMockupUnitImport,
    ,                        !- FMU File Name
    ,                        !- FMU Timeout {ms}
    ;                        !- FMU LoggingOn


!-   ===========  ALL OBJECTS IN CLASS: EXTERNALINTERFACE:FUNCTIONALMOCKUPUNITIMPORT:FROM:VARIABLE ===========

ExternalInterface:FunctionalMockupUnitImport:From:Variable,
    ,                        !- Output:Variable Index Key Name
    ,                        !- Output:Variable Name
    ,                        !- FMU File Name
    ,                        !- FMU Instance Name
    ;                        !- FMU Variable Name


!-   ===========  ALL OBJECTS IN CLASS: EXTERNALINTERFACE:FUNCTIONALMOCKUPUNITIMPORT:TO:SCHEDULE ===========

ExternalInterface:FunctionalMockupUnitImport:To:Schedule,
    ,                        !- Name
    ,                        !- Schedule Type Limits Names
    ,                        !- FMU File Name
    ,                        !- FMU Instance Name
    ,                        !- FMU Variable Name
    ;                        !- Initial Value


!-   ===========  ALL OBJECTS IN CLASS: EXTERNALINTERFACE:FUNCTIONALMOCKUPUNITIMPORT:TO:ACTUATOR ===========

ExternalInterface:FunctionalMockupUnitImport:To:Actuator,
    ,                        !- Name
    ,                        !- Actuated Component Unique Name
    ,                        !- Actuated Component Type
    ,                        !- Actuated Component Control Type
    ,                        !- FMU File Name
    ,                        !- FMU Instance Name
    ,                        !- FMU Variable Name
    ;                        !- Initial Value


!-   ===========  ALL OBJECTS IN CLASS: EXTERNALINTERFACE:FUNCTIONALMOCKUPUNITIMPORT:TO:VARIABLE ===========

ExternalInterface:FunctionalMockupUnitImport:To:Variable,
    ,                        !- Name
    ,                        !- FMU File Name
    ,                        !- FMU Instance Name
    ,                        !- FMU Variable Name
    ;                        !- Initial Value


!-   ===========  ALL OBJECTS IN CLASS: EXTERNALINTERFACE:FUNCTIONALMOCKUPUNITEXPORT:FROM:VARIABLE ===========

ExternalInterface:FunctionalMockupUnitExport:From:Variable,
    ,                        !- Output:Variable Index Key Name
    ,                        !- Output:Variable Name
    ;                        !- FMU Variable Name


!-   ===========  ALL OBJECTS IN CLASS: EXTERNALINTERFACE:FUNCTIONALMOCKUPUNITEXPORT:TO:SCHEDULE ===========

ExternalInterface:FunctionalMockupUnitExport:To:Schedule,
    ,                        !- Schedule Name
    ,                        !- Schedule Type Limits Names
    ,                        !- FMU Variable Name
    ;                        !- Initial Value


!-   ===========  ALL OBJECTS IN CLASS: EXTERNALINTERFACE:FUNCTIONALMOCKUPUNITEXPORT:TO:ACTUATOR ===========

ExternalInterface:FunctionalMockupUnitExport:To:Actuator,
    ,                        !- Name
    ,                        !- Actuated Component Unique Name
    ,                        !- Actuated Component Type
    ,                        !- Actuated Component Control Type
    ,                        !- FMU Variable Name
    ;                        !- Initial Value


!-   ===========  ALL OBJECTS IN CLASS: EXTERNALINTERFACE:FUNCTIONALMOCKUPUNITEXPORT:TO:VARIABLE ===========

ExternalInterface:FunctionalMockupUnitExport:To:Variable,
    ,                        !- Name
    ,                        !- FMU Variable Name
    ;                        !- Initial Value


!-   ===========  ALL OBJECTS IN CLASS: ZONEHVAC:FORCEDAIR:USERDEFINED ===========

ZoneHVAC:ForcedAir:UserDefined,
    ,                        !- Name
    ,                        !- Overall Model Simulation Program Calling Manager Name
    ,                        !- Model Setup and Sizing Program Calling Manager Name
    ,                        !- Primary Air Inlet Node Name
    ,                        !- Primary Air Outlet Node Name
    ,                        !- Secondary Air Inlet Node Name
    ,                        !- Secondary Air Outlet Node Name
    ;                        !- Number of Plant Loop Connections


!-   ===========  ALL OBJECTS IN CLASS: AIRTERMINAL:SINGLEDUCT:USERDEFINED ===========

AirTerminal:SingleDuct:UserDefined,
    ,                        !- Name
    ,                        !- Overall Model Simulation Program Calling Manager Name
    ,                        !- Model Setup and Sizing Program Calling Manager Name
    ,                        !- Primary Air Inlet Node Name
    ,                        !- Primary Air Outlet Node Name
    ,                        !- Secondary Air Inlet Node Name
    ,                        !- Secondary Air Outlet Node Name
    ;                        !- Number of Plant Loop Connections


!-   ===========  ALL OBJECTS IN CLASS: COIL:USERDEFINED ===========

Coil:UserDefined,
    ,                        !- Name
    ,                        !- Overall Model Simulation Program Calling Manager Name
    ,                        !- Model Setup and Sizing Program Calling Manager Name
    ,                        !- Number of Air Connections
    ,                        !- Air Connection 1 Inlet Node Name
    ,                        !- Air Connection 1 Outlet Node Name
    ,                        !- Air Connection 2 Inlet Node Name
    ,                        !- Air Connection 2 Outlet Node Name
    ;                        !- Plant Connection is Used


!-   ===========  ALL OBJECTS IN CLASS: PLANTCOMPONENT:USERDEFINED ===========

PlantComponent:UserDefined,
    ,                        !- Name
    ,                        !- Main Model Program Calling Manager Name
    ,                        !- Number of Plant Loop Connections
    ,                        !- Plant Connection 1 Inlet Node Name
    ,                        !- Plant Connection 1 Outlet Node Name
    ,                        !- Plant Connection 1 Loading Mode
    ,                        !- Plant Connection 1 Loop Flow Request Mode
    ,                        !- Plant Connection 1 Initialization Program Calling Manager Name
    ;                        !- Plant Connection 1 Simulation Program Calling Manager Name


!-   ===========  ALL OBJECTS IN CLASS: PLANTEQUIPMENTOPERATION:USERDEFINED ===========

PlantEquipmentOperation:UserDefined,
    ,                        !- Name
    ,                        !- Main Model Program Calling Manager Name
    ,                        !- Initialization Program Calling Manager Name
    ,                        !- Equipment 1 Object Type
    ;                        !- Equipment 1 Name


!-   ===========  ALL OBJECTS IN CLASS: AVAILABILITYMANAGER:SCHEDULED ===========

AvailabilityManager:Scheduled,
    ,                        !- Name
    ;                        !- Schedule Name


!-   ===========  ALL OBJECTS IN CLASS: AVAILABILITYMANAGER:SCHEDULEDON ===========

AvailabilityManager:ScheduledOn,
    ,                        !- Name
    ;                        !- Schedule Name


!-   ===========  ALL OBJECTS IN CLASS: AVAILABILITYMANAGER:SCHEDULEDOFF ===========

AvailabilityManager:ScheduledOff,
    ,                        !- Name
    ;                        !- Schedule Name


!-   ===========  ALL OBJECTS IN CLASS: AVAILABILITYMANAGER:OPTIMUMSTART ===========

AvailabilityManager:OptimumStart,
    ,                        !- Name
    ,                        !- Applicability Schedule Name
    ,                        !- Fan Schedule Name
    ControlZone,             !- Control Type
    ,                        !- Control Zone Name
    ,                        !- Zone List Name
    6,                       !- Maximum Value for Optimum Start Time {hr}
    AdaptiveASHRAE,          !- Control Algorithm
    ,                        !- Constant Temperature Gradient during Cooling {deltaC/hr}
    ,                        !- Constant Temperature Gradient during Heating {deltaC/hr}
    ,                        !- Initial Temperature Gradient during Cooling {deltaC/hr}
    ,                        !- Initial Temperature Gradient during Heating {deltaC/hr}
    ,                        !- Constant Start Time {hr}
    2;                       !- Number of Previous Days {days}


!-   ===========  ALL OBJECTS IN CLASS: AVAILABILITYMANAGER:NIGHTCYCLE ===========

AvailabilityManager:NightCycle,
    ,                        !- Name
    ,                        !- Applicability Schedule Name
    ,                        !- Fan Schedule Name
    StayOff,                 !- Control Type
    1,                       !- Thermostat Tolerance {deltaC}
    FixedRunTime,            !- Cycling Run Time Control Type
    3600;                    !- Cycling Run Time {s}


!-   ===========  ALL OBJECTS IN CLASS: AVAILABILITYMANAGER:DIFFERENTIALTHERMOSTAT ===========

AvailabilityManager:DifferentialThermostat,
    ;                        !- Name


!-   ===========  ALL OBJECTS IN CLASS: AVAILABILITYMANAGER:HIGHTEMPERATURETURNOFF ===========

AvailabilityManager:HighTemperatureTurnOff,
    ;                        !- Name


!-   ===========  ALL OBJECTS IN CLASS: AVAILABILITYMANAGER:HIGHTEMPERATURETURNON ===========

AvailabilityManager:HighTemperatureTurnOn,
    ;                        !- Name


!-   ===========  ALL OBJECTS IN CLASS: AVAILABILITYMANAGER:LOWTEMPERATURETURNOFF ===========

AvailabilityManager:LowTemperatureTurnOff,
    ;                        !- Name


!-   ===========  ALL OBJECTS IN CLASS: AVAILABILITYMANAGER:LOWTEMPERATURETURNON ===========

AvailabilityManager:LowTemperatureTurnOn,
    ;                        !- Name


!-   ===========  ALL OBJECTS IN CLASS: AVAILABILITYMANAGER:NIGHTVENTILATION ===========

AvailabilityManager:NightVentilation,
    ,                        !- Name
    ,                        !- Applicability Schedule Name
    ,                        !- Fan Schedule Name
    ,                        !- Ventilation Temperature Schedule Name
    2,                       !- Ventilation Temperature Difference {deltaC}
    15,                      !- Ventilation Temperature Low Limit {C}
    1;                       !- Night Venting Flow Fraction


!-   ===========  ALL OBJECTS IN CLASS: AVAILABILITYMANAGER:HYBRIDVENTILATION ===========

AvailabilityManager:HybridVentilation,
    ,                        !- Name
    ,                        !- HVAC Air Loop Name
    ,                        !- Control Zone Name
    ,                        !- Ventilation Control Mode Schedule Name
    Yes,                     !- Use Weather File Rain Indicators
    40,                      !- Maximum Wind Speed {m/s}
    -100,                    !- Minimum Outdoor Temperature {C}
    100,                     !- Maximum Outdoor Temperature {C}
    ,                        !- Minimum Outdoor Enthalpy {J/kg}
    ,                        !- Maximum Outdoor Enthalpy {J/kg}
    -100,                    !- Minimum Outdoor Dewpoint {C}
    100,                     !- Maximum Outdoor Dewpoint {C}
    ;                        !- Minimum Outdoor Ventilation Air Schedule Name


!-   ===========  ALL OBJECTS IN CLASS: AVAILABILITYMANAGERASSIGNMENTLIST ===========

AvailabilityManagerAssignmentList,
    ,                        !- Name
    ,                        !- Availability Manager 1 Object Type
    ;                        !- Availability Manager 1 Name


!-   ===========  ALL OBJECTS IN CLASS: SETPOINTMANAGER:SCHEDULED ===========

SetpointManager:Scheduled,
    ;                        !- Name


!-   ===========  ALL OBJECTS IN CLASS: SETPOINTMANAGER:SCHEDULED:DUALSETPOINT ===========

SetpointManager:Scheduled:DualSetpoint,
    ,                        !- Name
    Temperature;             !- Control Variable


!-   ===========  ALL OBJECTS IN CLASS: SETPOINTMANAGER:OUTDOORAIRRESET ===========

SetpointManager:OutdoorAirReset,
    ,                        !- Name
    Temperature;             !- Control Variable


!-   ===========  ALL OBJECTS IN CLASS: SETPOINTMANAGER:SINGLEZONE:REHEAT ===========

SetpointManager:SingleZone:Reheat,
    ,                        !- Name
    Temperature,             !- Control Variable
    -99,                     !- Minimum Supply Air Temperature {C}
    99;                      !- Maximum Supply Air Temperature {C}


!-   ===========  ALL OBJECTS IN CLASS: SETPOINTMANAGER:SINGLEZONE:HEATING ===========

SetpointManager:SingleZone:Heating,
    ,                        !- Name
    Temperature,             !- Control Variable
    -99,                     !- Minimum Supply Air Temperature {C}
    99,                      !- Maximum Supply Air Temperature {C}
    ,                        !- Control Zone Name
    ,                        !- Zone Node Name
    ,                        !- Zone Inlet Node Name
    ;                        !- Setpoint Node or NodeList Name


!-   ===========  ALL OBJECTS IN CLASS: SETPOINTMANAGER:SINGLEZONE:COOLING ===========

SetpointManager:SingleZone:Cooling,
    ,                        !- Name
    Temperature,             !- Control Variable
    -99,                     !- Minimum Supply Air Temperature {C}
    99,                      !- Maximum Supply Air Temperature {C}
    ,                        !- Control Zone Name
    ,                        !- Zone Node Name
    ,                        !- Zone Inlet Node Name
    ;                        !- Setpoint Node or NodeList Name


!-   ===========  ALL OBJECTS IN CLASS: SETPOINTMANAGER:SINGLEZONE:HUMIDITY:MINIMUM ===========

SetpointManager:SingleZone:Humidity:Minimum,
    ;                        !- Name


!-   ===========  ALL OBJECTS IN CLASS: SETPOINTMANAGER:SINGLEZONE:HUMIDITY:MAXIMUM ===========

SetpointManager:SingleZone:Humidity:Maximum,
    ;                        !- Name


!-   ===========  ALL OBJECTS IN CLASS: SETPOINTMANAGER:MIXEDAIR ===========

SetpointManager:MixedAir,
    ,                        !- Name
    Temperature,             !- Control Variable
    ,                        !- Reference Setpoint Node Name
    ,                        !- Fan Inlet Node Name
    ,                        !- Fan Outlet Node Name
    ,                        !- Setpoint Node or NodeList Name
    ,                        !- Cooling Coil Inlet Node Name
    ,                        !- Cooling coil Outlet Node Name
    7.2;                     !- Minimum Temperature at Cooling Coil Outlet Node {C}


!-   ===========  ALL OBJECTS IN CLASS: SETPOINTMANAGER:OUTDOORAIRPRETREAT ===========

SetpointManager:OutdoorAirPretreat,
    ,                        !- Name
    ,                        !- Control Variable
    -99,                     !- Minimum Setpoint Temperature {C}
    99,                      !- Maximum Setpoint Temperature {C}
    0.00001,                 !- Minimum Setpoint Humidity Ratio {kgWater/kgDryAir}
    1,                       !- Maximum Setpoint Humidity Ratio {kgWater/kgDryAir}
    ,                        !- Reference Setpoint Node Name
    ,                        !- Mixed Air Stream Node Name
    ,                        !- Outdoor Air Stream Node Name
    ,                        !- Return Air Stream Node Name
    ;                        !- Setpoint Node or NodeList Name


!-   ===========  ALL OBJECTS IN CLASS: SETPOINTMANAGER:WARMEST ===========

SetpointManager:Warmest,
    ,                        !- Name
    Temperature,             !- Control Variable
    ,                        !- HVAC Air Loop Name
    12,                      !- Minimum Setpoint Temperature {C}
    18,                      !- Maximum Setpoint Temperature {C}
    MaximumTemperature;      !- Strategy


!-   ===========  ALL OBJECTS IN CLASS: SETPOINTMANAGER:COLDEST ===========

SetpointManager:Coldest,
    ,                        !- Name
    Temperature,             !- Control Variable
    ,                        !- HVAC Air Loop Name
    20,                      !- Minimum Setpoint Temperature {C}
    50,                      !- Maximum Setpoint Temperature {C}
    MinimumTemperature;      !- Strategy


!-   ===========  ALL OBJECTS IN CLASS: SETPOINTMANAGER:RETURNAIRBYPASSFLOW ===========

SetpointManager:ReturnAirBypassFlow,
    ,                        !- Name
    Flow,                    !- Control Variable
    ,                        !- HVAC Air Loop Name
    ;                        !- Temperature Setpoint Schedule Name


!-   ===========  ALL OBJECTS IN CLASS: SETPOINTMANAGER:WARMESTTEMPERATUREFLOW ===========

SetpointManager:WarmestTemperatureFlow,
    ,                        !- Name
    ,                        !- Control Variable
    ,                        !- HVAC Air Loop Name
    12,                      !- Minimum Setpoint Temperature {C}
    18,                      !- Maximum Setpoint Temperature {C}
    TemperatureFirst,        !- Strategy
    ,                        !- Setpoint Node or NodeList Name
    0.2;                     !- Minimum Turndown Ratio {dimensionless}


!-   ===========  ALL OBJECTS IN CLASS: SETPOINTMANAGER:MULTIZONE:HEATING:AVERAGE ===========

SetpointManager:MultiZone:Heating:Average,
    ,                        !- Name
    ,                        !- HVAC Air Loop Name
    20,                      !- Minimum Setpoint Temperature {C}
    50,                      !- Maximum Setpoint Temperature {C}
    ;                        !- Setpoint Node or NodeList Name


!-   ===========  ALL OBJECTS IN CLASS: SETPOINTMANAGER:MULTIZONE:COOLING:AVERAGE ===========

SetpointManager:MultiZone:Cooling:Average,
    ,                        !- Name
    ,                        !- HVAC Air Loop Name
    12,                      !- Minimum Setpoint Temperature {C}
    18,                      !- Maximum Setpoint Temperature {C}
    ;                        !- Setpoint Node or NodeList Name


!-   ===========  ALL OBJECTS IN CLASS: SETPOINTMANAGER:MULTIZONE:MINIMUMHUMIDITY:AVERAGE ===========

SetpointManager:MultiZone:MinimumHumidity:Average,
    ,                        !- Name
    ,                        !- HVAC Air Loop Name
    0.005,                   !- Minimum Setpoint Humidity Ratio {kgWater/kgDryAir}
    0.012,                   !- Maximum Setpoint Humidity Ratio {kgWater/kgDryAir}
    ;                        !- Setpoint Node or NodeList Name


!-   ===========  ALL OBJECTS IN CLASS: SETPOINTMANAGER:MULTIZONE:MAXIMUMHUMIDITY:AVERAGE ===========

SetpointManager:MultiZone:MaximumHumidity:Average,
    ,                        !- Name
    ,                        !- HVAC Air Loop Name
    0.008,                   !- Minimum Setpoint Humidity Ratio {kgWater/kgDryAir}
    0.015,                   !- Maximum Setpoint Humidity Ratio {kgWater/kgDryAir}
    ;                        !- Setpoint Node or NodeList Name


!-   ===========  ALL OBJECTS IN CLASS: SETPOINTMANAGER:MULTIZONE:HUMIDITY:MINIMUM ===========

SetpointManager:MultiZone:Humidity:Minimum,
    ,                        !- Name
    ,                        !- HVAC Air Loop Name
    0.005,                   !- Minimum Setpoint Humidity Ratio {kgWater/kgDryAir}
    0.012,                   !- Maximum Setpoint Humidity Ratio {kgWater/kgDryAir}
    ;                        !- Setpoint Node or NodeList Name


!-   ===========  ALL OBJECTS IN CLASS: SETPOINTMANAGER:MULTIZONE:HUMIDITY:MAXIMUM ===========

SetpointManager:MultiZone:Humidity:Maximum,
    ,                        !- Name
    ,                        !- HVAC Air Loop Name
    0.008,                   !- Minimum Setpoint Humidity Ratio {kgWater/kgDryAir}
    0.015,                   !- Maximum Setpoint Humidity Ratio {kgWater/kgDryAir}
    ;                        !- Setpoint Node or NodeList Name


!-   ===========  ALL OBJECTS IN CLASS: SETPOINTMANAGER:FOLLOWOUTDOORAIRTEMPERATURE ===========

SetpointManager:FollowOutdoorAirTemperature,
    ,                        !- Name
    Temperature,             !- Control Variable
    OutdoorAirWetBulb;       !- Reference Temperature Type


!-   ===========  ALL OBJECTS IN CLASS: SETPOINTMANAGER:FOLLOWSYSTEMNODETEMPERATURE ===========

SetpointManager:FollowSystemNodeTemperature,
    ,                        !- Name
    Temperature,             !- Control Variable
    ,                        !- Reference Node Name
    NodeDryBulb;             !- Reference Temperature Type


!-   ===========  ALL OBJECTS IN CLASS: SETPOINTMANAGER:FOLLOWGROUNDTEMPERATURE ===========

SetpointManager:FollowGroundTemperature,
    ,                        !- Name
    Temperature;             !- Control Variable


!-   ===========  ALL OBJECTS IN CLASS: SETPOINTMANAGER:CONDENSERENTERINGRESET ===========

SetpointManager:CondenserEnteringReset,
    ,                        !- Name
    Temperature,             !- Control Variable
    ,                        !- Default Condenser Entering Water Temperature Schedule Name
    ,                        !- Minimum Design Wetbulb Temperature Curve Name
    ,                        !- Minimum Outside Air Wetbulb Temperature Curve Name
    ,                        !- Optimized Cond Entering Water Temperature Curve Name
    11.1,                    !- Minimum Lift {deltaC}
    32,                      !- Maximum Condenser Entering Water Temperature {C}
    25.56,                   !- Cooling Tower Design Inlet Air Wet-Bulb Temperature {C}
    ;                        !- Setpoint Node or NodeList Name


!-   ===========  ALL OBJECTS IN CLASS: SETPOINTMANAGER:CONDENSERENTERINGRESET:IDEAL ===========

SetpointManager:CondenserEnteringReset:Ideal,
    ,                        !- Name
    Temperature,             !- Control Variable
    11.1,                    !- Minimum Lift {deltaC}
    32,                      !- Maximum Condenser Entering Water Temperature {C}
    ;                        !- Setpoint Node or NodeList Name


!-   ===========  ALL OBJECTS IN CLASS: SETPOINTMANAGER:SINGLEZONE:ONESTAGECOOLING ===========

SetpointManager:SingleZone:OneStageCooling,
    ,                        !- Name
    -99,                     !- Cooling Stage On Supply Air Setpoint Temperature {C}
    99,                      !- Cooling Stage Off Supply Air Setpoint Temperature {C}
    ,                        !- Control Zone Name
    ;                        !- Setpoint Node or NodeList Name


!-   ===========  ALL OBJECTS IN CLASS: SETPOINTMANAGER:SINGLEZONE:ONESTAGEHEATING ===========

SetpointManager:SingleZone:OneStageHeating,
    ,                        !- Name
    99,                      !- Heating Stage On Supply Air Setpoint Temperature {C}
    -99,                     !- Heating Stage Off Supply Air Setpoint Temperature {C}
    ,                        !- Control Zone Name
    ;                        !- Setpoint Node or NodeList Name


!-   ===========  ALL OBJECTS IN CLASS: SETPOINTMANAGER:RETURNTEMPERATURE:CHILLEDWATER ===========

SetpointManager:ReturnTemperature:ChilledWater,
    ,                        !- Name
    ,                        !- Plant Loop Supply Outlet Node
    ,                        !- Plant Loop Supply Inlet Node
    5,                       !- Minimum Supply Temperature Setpoint {C}
    10,                      !- Maximum Supply Temperature Setpoint {C}
    ,                        !- Return Temperature Setpoint Input Type
    13;                      !- Return Temperature Setpoint Constant Value {C}


!-   ===========  ALL OBJECTS IN CLASS: SETPOINTMANAGER:RETURNTEMPERATURE:HOTWATER ===========

SetpointManager:ReturnTemperature:HotWater,
    ,                        !- Name
    ,                        !- Plant Loop Supply Outlet Node
    ,                        !- Plant Loop Supply Inlet Node
    77,                      !- Minimum Supply Temperature Setpoint {C}
    82,                      !- Maximum Supply Temperature Setpoint {C}
    ,                        !- Return Temperature Setpoint Input Type
    71;                      !- Return Temperature Setpoint Constant Value {C}


!-   ===========  ALL OBJECTS IN CLASS: SETPOINTMANAGER:SYSTEMNODERESET:TEMPERATURE ===========

SetpointManager:SystemNodeReset:Temperature,
    ;                        !- Name


!-   ===========  ALL OBJECTS IN CLASS: SETPOINTMANAGER:SYSTEMNODERESET:HUMIDITY ===========

SetpointManager:SystemNodeReset:Humidity,
    ;                        !- Name


!-   ===========  ALL OBJECTS IN CLASS: REFRIGERATION:CASE ===========

Refrigeration:Case,
    ,                        !- Name
    ,                        !- Availability Schedule Name
    ,                        !- Zone Name
    23.9,                    !- Rated Ambient Temperature {C}
    55,                      !- Rated Ambient Relative Humidity {percent}
    1900,                    !- Rated Total Cooling Capacity per Unit Length {W/m}
    0.3,                     !- Rated Latent Heat Ratio
    0.85,                    !- Rated Runtime Fraction
    3,                       !- Case Length {m}
    1.1,                     !- Case Operating Temperature {C}
    CaseTemperatureMethod,   !- Latent Case Credit Curve Type
    ,                        !- Latent Case Credit Curve Name
    75,                      !- Standard Case Fan Power per Unit Length {W/m}
    75,                      !- Operating Case Fan Power per Unit Length {W/m}
    90,                      !- Standard Case Lighting Power per Unit Length {W/m}
    ,                        !- Installed Case Lighting Power per Unit Length {W/m}
    ,                        !- Case Lighting Schedule Name
    1,                       !- Fraction of Lighting Energy to Case
    ,                        !- Case Anti-Sweat Heater Power per Unit Length {W/m}
    ,                        !- Minimum Anti-Sweat Heater Power per Unit Length {W/m}
    None,                    !- Anti-Sweat Heater Control Type
    -10,                     !- Humidity at Zero Anti-Sweat Heater Energy {percent}
    1.5,                     !- Case Height {m}
    1,                       !- Fraction of Anti-Sweat Heater Energy to Case
    ,                        !- Case Defrost Power per Unit Length {W/m}
    OffCycle,                !- Case Defrost Type
    ,                        !- Case Defrost Schedule Name
    ,                        !- Case Defrost Drip-Down Schedule Name
    None;                    !- Defrost Energy Correction Curve Type


!-   ===========  ALL OBJECTS IN CLASS: REFRIGERATION:COMPRESSORRACK ===========

Refrigeration:CompressorRack,
    ,                        !- Name
    Outdoors,                !- Heat Rejection Location
    2,                       !- Design Compressor Rack COP {W/W}
    ,                        !- Compressor Rack COP Function of Temperature Curve Name
    250,                     !- Design Condenser Fan Power {W}
    ,                        !- Condenser Fan Power Function of Temperature Curve Name
    AirCooled,               !- Condenser Type
    ,                        !- Water-Cooled Condenser Inlet Node Name
    ,                        !- Water-Cooled Condenser Outlet Node Name
    VariableFlow,            !- Water-Cooled Loop Flow Type
    ,                        !- Water-Cooled Condenser Outlet Temperature Schedule Name
    ,                        !- Water-Cooled Condenser Design Flow Rate {m3/s}
    ,                        !- Water-Cooled Condenser Maximum Flow Rate {m3/s}
    55,                      !- Water-Cooled Condenser Maximum Water Outlet Temperature {C}
    10,                      !- Water-Cooled Condenser Minimum Water Inlet Temperature {C}
    ,                        !- Evaporative Condenser Availability Schedule Name
    0.9,                     !- Evaporative Condenser Effectiveness {dimensionless}
    autocalculate,           !- Evaporative Condenser Air Flow Rate {m3/s}
    200,                     !- Basin Heater Capacity {W/K}
    2,                       !- Basin Heater Setpoint Temperature {C}
    1000,                    !- Design Evaporative Condenser Water Pump Power {W}
    ,                        !- Evaporative Water Supply Tank Name
    ,                        !- Condenser Air Inlet Node Name
    General,                 !- End-Use Subcategory
    ;                        !- Refrigeration Case Name or WalkIn Name or CaseAndWalkInList Name


!-   ===========  ALL OBJECTS IN CLASS: REFRIGERATION:CASEANDWALKINLIST ===========

Refrigeration:CaseAndWalkInList,
    ;                        !- Name


!-   ===========  ALL OBJECTS IN CLASS: REFRIGERATION:CONDENSER:AIRCOOLED ===========

Refrigeration:Condenser:AirCooled,
    ,                        !- Name
    ,                        !- Rated Effective Total Heat Rejection Rate Curve Name
    ,                        !- Rated Subcooling Temperature Difference {deltaC}
    Fixed,                   !- Condenser Fan Speed Control Type
    250,                     !- Rated Fan Power {W}
    0.2,                     !- Minimum Fan Air Flow Ratio {dimensionless}
    ,                        !- Air Inlet Node Name or Zone Name
    General;                 !- End-Use Subcategory


!-   ===========  ALL OBJECTS IN CLASS: REFRIGERATION:CONDENSER:EVAPORATIVECOOLED ===========

Refrigeration:Condenser:EvaporativeCooled,
    ,                        !- Name
    ,                        !- Rated Effective Total Heat Rejection Rate {W}
    ,                        !- Rated Subcooling Temperature Difference {deltaC}
    Fixed,                   !- Fan Speed Control Type
    ,                        !- Rated Fan Power {W}
    0.2,                     !- Minimum Fan Air Flow Ratio {dimensionless}
    6.63,                    !- Approach Temperature Constant Term {C}
    0.468,                   !- Approach Temperature Coefficient 2 {C}
    17.93,                   !- Approach Temperature Coefficient 3 {C}
    -.322,                   !- Approach Temperature Coefficient 4 {dimensionless}
    0.5,                     !- Minimum Capacity Factor {dimensionless}
    5,                       !- Maximum Capacity Factor {dimensionless}
    ,                        !- Air Inlet Node Name
    autocalculate,           !- Rated Air Flow Rate {m3/s}
    200,                     !- Basin Heater Capacity {W/K}
    2,                       !- Basin Heater Setpoint Temperature {C}
    1000,                    !- Rated Water Pump Power {W}
    ,                        !- Evaporative Water Supply Tank Name
    ,                        !- Evaporative Condenser Availability Schedule Name
    General;                 !- End-Use Subcategory


!-   ===========  ALL OBJECTS IN CLASS: REFRIGERATION:CONDENSER:WATERCOOLED ===========

Refrigeration:Condenser:WaterCooled,
    ,                        !- Name
    ,                        !- Rated Effective Total Heat Rejection Rate {W}
    ,                        !- Rated Condensing Temperature {C}
    ,                        !- Rated Subcooling Temperature Difference {deltaC}
    ,                        !- Rated Water Inlet Temperature {C}
    ,                        !- Water Inlet Node Name
    ,                        !- Water Outlet Node Name
    VariableFlow,            !- Water-Cooled Loop Flow Type
    ,                        !- Water Outlet Temperature Schedule Name
    ,                        !- Water Design Flow Rate {m3/s}
    ,                        !- Water Maximum Flow Rate {m3/s}
    55,                      !- Water Maximum Water Outlet Temperature {C}
    10,                      !- Water Minimum Water Inlet Temperature {C}
    General;                 !- End-Use Subcategory


!-   ===========  ALL OBJECTS IN CLASS: REFRIGERATION:CONDENSER:CASCADE ===========

Refrigeration:Condenser:Cascade,
    ,                        !- Name
    ,                        !- Rated Condensing Temperature {C}
    3,                       !- Rated Approach Temperature Difference {deltaC}
    ,                        !- Rated Effective Total Heat Rejection Rate {W}
    Fixed;                   !- Condensing Temperature Control Type


!-   ===========  ALL OBJECTS IN CLASS: REFRIGERATION:GASCOOLER:AIRCOOLED ===========

Refrigeration:GasCooler:AirCooled,
    ,                        !- Name
    ,                        !- Rated Total Heat Rejection Rate Curve Name
    Fixed,                   !- Gas Cooler Fan Speed Control Type
    5000,                    !- Rated Fan Power {W}
    0.2,                     !- Minimum Fan Air Flow Ratio {dimensionless}
    27,                      !- Transition Temperature {C}
    3,                       !- Transcritical Approach Temperature {deltaC}
    10,                      !- Subcritical Temperature Difference {deltaC}
    10,                      !- Minimum Condensing Temperature {C}
    ,                        !- Air Inlet Node Name
    General;                 !- End-Use Subcategory


!-   ===========  ALL OBJECTS IN CLASS: REFRIGERATION:TRANSFERLOADLIST ===========

Refrigeration:TransferLoadList,
    ;                        !- Name


!-   ===========  ALL OBJECTS IN CLASS: REFRIGERATION:SUBCOOLER ===========

Refrigeration:Subcooler,
    ,                        !- Name
    LiquidSuction,           !- Subcooler Type
    ,                        !- Liquid Suction Design Subcooling Temperature Difference {deltaC}
    ,                        !- Design Liquid Inlet Temperature {C}
    ;                        !- Design Vapor Inlet Temperature {C}


!-   ===========  ALL OBJECTS IN CLASS: REFRIGERATION:COMPRESSOR ===========

Refrigeration:Compressor,
    ,                        !- Name
    ,                        !- Refrigeration Compressor Power Curve Name
    ,                        !- Refrigeration Compressor Capacity Curve Name
    ,                        !- Rated Superheat {deltaC}
    ,                        !- Rated Return Gas Temperature {C}
    ,                        !- Rated Liquid Temperature {C}
    ,                        !- Rated Subcooling {deltaC}
    General,                 !- End-Use Subcategory
    Subcritical;             !- Mode of Operation


!-   ===========  ALL OBJECTS IN CLASS: REFRIGERATION:COMPRESSORLIST ===========

Refrigeration:CompressorList,
    ,                        !- Name
    ;                        !- Refrigeration Compressor 1 Name


!-   ===========  ALL OBJECTS IN CLASS: REFRIGERATION:SYSTEM ===========

Refrigeration:System,
    ,                        !- Name
    ,                        !- Refrigerated Case or Walkin or CaseAndWalkInList Name
    ,                        !- Refrigeration Transfer Load or TransferLoad List Name
    ,                        !- Refrigeration Condenser Name
    ,                        !- Compressor or CompressorList Name
    ,                        !- Minimum Condensing Temperature {C}
    ,                        !- Refrigeration System Working Fluid Type
    ConstantSuctionTemperature,  !- Suction Temperature Control Type
    ,                        !- Mechanical Subcooler Name
    ,                        !- Liquid Suction Heat Exchanger Subcooler Name
    ,                        !- Sum UA Suction Piping {W/K}
    ,                        !- Suction Piping Zone Name
    General,                 !- End-Use Subcategory
    1,                       !- Number of Compressor Stages
    None,                    !- Intercooler Type
    0.8;                     !- Shell-and-Coil Intercooler Effectiveness


!-   ===========  ALL OBJECTS IN CLASS: REFRIGERATION:TRANSCRITICALSYSTEM ===========

Refrigeration:TranscriticalSystem,
    ,                        !- Name
    ,                        !- System Type
    ,                        !- Medium Temperature Refrigerated Case or Walkin or CaseAndWalkInList Name
    ,                        !- Low Temperature Refrigerated Case or Walkin or CaseAndWalkInList Name
    ,                        !- Refrigeration Gas Cooler Name
    ,                        !- High Pressure Compressor or CompressorList Name
    ,                        !- Low Pressure Compressor or CompressorList Name
    4000000,                 !- Receiver Pressure {Pa}
    0.4,                     !- Subcooler Effectiveness
    ,                        !- Refrigeration System Working Fluid Type
    ,                        !- Sum UA Suction Piping for Medium Temperature Loads {W/K}
    ,                        !- Medium Temperature Suction Piping Zone Name
    ,                        !- Sum UA Suction Piping for Low Temperature Loads {W/K}
    ,                        !- Low Temperature Suction Piping Zone Name
    General;                 !- End-Use Subcategory


!-   ===========  ALL OBJECTS IN CLASS: REFRIGERATION:SECONDARYSYSTEM ===========

Refrigeration:SecondarySystem,
    ,                        !- Name
    ,                        !- Refrigerated Case or Walkin or CaseAndWalkInList Name
    ,                        !- Circulating Fluid Type
    ,                        !- Circulating Fluid Name
    ,                        !- Evaporator Capacity {W}
    ,                        !- Evaporator Flow Rate for Secondary Fluid {m3/s}
    ,                        !- Evaporator Evaporating Temperature {C}
    ,                        !- Evaporator Approach Temperature Difference {deltaC}
    ,                        !- Evaporator Range Temperature Difference {deltaC}
    1,                       !- Number of Pumps in Loop
    ,                        !- Total Pump Flow Rate {m3/s}
    ,                        !- Total Pump Power {W}
    ,                        !- Total Pump Head {Pa}
    2.5,                     !- PhaseChange Circulating Rate {dimensionless}
    Constant,                !- Pump Drive Type
    ,                        !- Variable Speed Pump Cubic Curve Name
    0.85,                    !- Pump Motor Heat to Fluid {dimensionless}
    ,                        !- Sum UA Distribution Piping {W/K}
    ,                        !- Distribution Piping Zone Name
    ,                        !- Sum UA Receiver/Separator Shell {W/K}
    ,                        !- Receiver/Separator Zone Name
    ,                        !- Evaporator Refrigerant Inventory {kg}
    General;                 !- End-Use Subcategory


!-   ===========  ALL OBJECTS IN CLASS: REFRIGERATION:WALKIN ===========

Refrigeration:WalkIn,
    ,                        !- Name
    ,                        !- Availability Schedule Name
    ,                        !- Rated Coil Cooling Capacity {W}
    ,                        !- Operating Temperature {C}
    ,                        !- Rated Cooling Source Temperature {C}
    ,                        !- Rated Total Heating Power {W}
    ,                        !- Heating Power Schedule Name
    375,                     !- Rated Cooling Coil Fan Power {W}
    ,                        !- Rated Circulation Fan Power {W}
    ,                        !- Rated Total Lighting Power {W}
    ,                        !- Lighting Schedule Name
    Electric,                !- Defrost Type
    TimeSchedule,            !- Defrost Control Type
    ,                        !- Defrost Schedule Name
    ,                        !- Defrost Drip-Down Schedule Name
    ,                        !- Defrost Power {W}
    ,                        !- Temperature Termination Defrost Fraction to Ice {dimensionless}
    ,                        !- Restocking Schedule Name
    ,                        !- Average Refrigerant Charge Inventory {kg}
    ,                        !- Insulated Floor Surface Area {m2}
    0.3154,                  !- Insulated Floor U-Value {W/m2-K}
    ,                        !- Zone 1 Name
    ,                        !- Total Insulated Surface Area Facing Zone 1 {m2}
    0.3154,                  !- Insulated Surface U-Value Facing Zone 1 {W/m2-K}
    ,                        !- Area of Glass Reach In Doors Facing Zone 1 {m2}
    1.5,                     !- Height of Glass Reach In Doors Facing Zone 1 {m}
    1.136,                   !- Glass Reach In Door U Value Facing Zone 1 {W/m2-K}
    ,                        !- Glass Reach In Door Opening Schedule Name Facing Zone 1
    ,                        !- Area of Stocking Doors Facing Zone 1 {m2}
    3,                       !- Height of Stocking Doors Facing Zone 1 {m}
    0.3785,                  !- Stocking Door U Value Facing Zone 1 {W/m2-K}
    ,                        !- Stocking Door Opening Schedule Name Facing Zone 1
    AirCurtain,              !- Stocking Door Opening Protection Type Facing Zone 1
    ,                        !- Zone 2 Name
    ,                        !- Total Insulated Surface Area Facing Zone 2 {m2}
    0.3154,                  !- Insulated Surface U-Value Facing Zone 2 {W/m2-K}
    ,                        !- Area of Glass Reach In Doors Facing Zone 2 {m2}
    1.5,                     !- Height of Glass Reach In Doors Facing Zone 2 {m}
    1.136,                   !- Glass Reach In Door U Value Facing Zone 2 {W/m2-K}
    ,                        !- Glass Reach In Door Opening Schedule Name Facing Zone 2
    ,                        !- Area of Stocking Doors Facing Zone 2 {m2}
    3,                       !- Height of Stocking Doors Facing Zone 2 {m}
    0.3785,                  !- Stocking Door U Value Facing Zone 2 {W/m2-K}
    ,                        !- Stocking Door Opening Schedule Name Facing Zone 2
    AirCurtain,              !- Stocking Door Opening Protection Type Facing Zone 2
    ,                        !- Zone 3 Name
    ,                        !- Total Insulated Surface Area Facing Zone 3 {m2}
    0.3154,                  !- Insulated Surface U-Value Facing Zone 3 {W/m2-K}
    ,                        !- Area of Glass Reach In Doors Facing Zone 3 {m2}
    1.5,                     !- Height of Glass Reach In Doors Facing Zone 3 {m}
    1.136,                   !- Glass Reach In Door U Value Facing Zone 3 {W/m2-K}
    ,                        !- Glass Reach In Door Opening Schedule Name Facing Zone 3
    ,                        !- Area of Stocking Doors Facing Zone 3 {m2}
    3,                       !- Height of Stocking Doors Facing Zone 3 {m}
    0.3785,                  !- Stocking Door U Value Facing Zone 3 {W/m2-K}
    ,                        !- Stocking Door Opening Schedule Name Facing Zone 3
    AirCurtain;              !- Stocking Door Opening Protection Type Facing Zone 3


!-   ===========  ALL OBJECTS IN CLASS: REFRIGERATION:AIRCHILLER ===========

Refrigeration:AirChiller,
    ,                        !- Name
    ,                        !- Availability Schedule Name
    ,                        !- Capacity Rating Type
    ,                        !- Rated Unit Load Factor {W/K}
    ,                        !- Rated Capacity {W}
    85,                      !- Rated Relative Humidity {percent}
    ,                        !- Rated Cooling Source Temperature {C}
    ,                        !- Rated Temperature Difference DT1 {deltaC}
    ,                        !- Maximum Temperature Difference Between Inlet Air and Evaporating Temperature {deltaC}
    1,                       !- Coil Material Correction Factor {dimensionless}
    1,                       !- Refrigerant Correction Factor {dimensionless}
    ,                        !- Capacity Correction Curve Type
    ,                        !- Capacity Correction Curve Name
    1.48,                    !- SHR60 Correction Factor {dimensionless}
    ,                        !- Rated Total Heating Power {W}
    ,                        !- Heating Power Schedule Name
    Fixed,                   !- Fan Speed Control Type
    375,                     !- Rated Fan Power {W}
    ,                        !- Rated Air Flow {m3/s}
    0.2,                     !- Minimum Fan Air Flow Ratio {dimensionless}
    Electric,                !- Defrost Type
    TimeSchedule,            !- Defrost Control Type
    ,                        !- Defrost Schedule Name
    ,                        !- Defrost Drip-Down Schedule Name
    ,                        !- Defrost Power {W}
    ,                        !- Temperature Termination Defrost Fraction to Ice {dimensionless}
    Middle;                  !- Vertical Location


!-   ===========  ALL OBJECTS IN CLASS: ZONEHVAC:REFRIGERATIONCHILLERSET ===========

ZoneHVAC:RefrigerationChillerSet,
    ,                        !- Name
    ,                        !- Availability Schedule Name
    ,                        !- Zone Name
    ,                        !- Air Inlet Node Name
    ,                        !- Air Outlet Node Name
    ;                        !- Air Chiller 1 Name


!-   ===========  ALL OBJECTS IN CLASS: DEMANDMANAGERASSIGNMENTLIST ===========

DemandManagerAssignmentList,
    ;                        !- Name


!-   ===========  ALL OBJECTS IN CLASS: DEMANDMANAGER:EXTERIORLIGHTS ===========

DemandManager:ExteriorLights,
    ;                        !- Name


!-   ===========  ALL OBJECTS IN CLASS: DEMANDMANAGER:LIGHTS ===========

DemandManager:Lights,
    ;                        !- Name


!-   ===========  ALL OBJECTS IN CLASS: DEMANDMANAGER:ELECTRICEQUIPMENT ===========

DemandManager:ElectricEquipment,
    ;                        !- Name


!-   ===========  ALL OBJECTS IN CLASS: DEMANDMANAGER:THERMOSTATS ===========

DemandManager:Thermostats,
    ;                        !- Name


!-   ===========  ALL OBJECTS IN CLASS: DEMANDMANAGER:VENTILATION ===========

DemandManager:Ventilation,
    ,                        !- Name
    ,                        !- Availability Schedule Name
    ,                        !- Limit Control
    ,                        !- Minimum Limit Duration {minutes}
    ,                        !- Fixed Rate {m3/s}
    ,                        !- Reduction Ratio
    ,                        !- Limit Step Change
    All,                     !- Selection Control
    ,                        !- Rotation Duration {minutes}
    ;                        !- Controller Outdoor Air 1 Name


!-   ===========  ALL OBJECTS IN CLASS: GENERATOR:INTERNALCOMBUSTIONENGINE ===========

Generator:InternalCombustionEngine,
    ,                        !- Name
    ,                        !- Rated Power Output {W}
    ,                        !- Electric Circuit Node Name
    ,                        !- Minimum Part Load Ratio
    ,                        !- Maximum Part Load Ratio
    ,                        !- Optimum Part Load Ratio
    ,                        !- Shaft Power Curve Name
    ,                        !- Jacket Heat Recovery Curve Name
    ,                        !- Lube Heat Recovery Curve Name
    ,                        !- Total Exhaust Energy Curve Name
    ,                        !- Exhaust Temperature Curve Name
    ,                        !- Coefficient 1 of U-Factor Times Area Curve
    ,                        !- Coefficient 2 of U-Factor Times Area Curve
    ,                        !- Maximum Exhaust Flow per Unit of Power Output {(kg/s)/W}
    ,                        !- Design Minimum Exhaust Temperature {C}
    ,                        !- Fuel Higher Heating Value {kJ/kg}
    ,                        !- Design Heat Recovery Water Flow Rate {m3/s}
    ,                        !- Heat Recovery Inlet Node Name
    ,                        !- Heat Recovery Outlet Node Name
    Diesel,                  !- Fuel Type
    80;                      !- Heat Recovery Maximum Temperature {C}


!-   ===========  ALL OBJECTS IN CLASS: GENERATOR:COMBUSTIONTURBINE ===========

Generator:CombustionTurbine,
    ,                        !- Name
    ,                        !- Rated Power Output {W}
    ,                        !- Electric Circuit Node Name
    ,                        !- Minimum Part Load Ratio
    ,                        !- Maximum Part Load Ratio
    ,                        !- Optimum Part Load Ratio
    ,                        !- Part Load Based Fuel Input Curve Name
    ,                        !- Temperature Based Fuel Input Curve Name
    ,                        !- Exhaust Flow Curve Name
    ,                        !- Part Load Based Exhaust Temperature Curve Name
    ,                        !- Temperature Based Exhaust Temperature Curve Name
    ,                        !- Heat Recovery Lube Energy Curve Name
    ,                        !- Coefficient 1 of U-Factor Times Area Curve
    ,                        !- Coefficient 2 of U-Factor Times Area Curve
    ,                        !- Maximum Exhaust Flow per Unit of Power Output {(kg/s)/W}
    ,                        !- Design Minimum Exhaust Temperature {C}
    ,                        !- Design Air Inlet Temperature {C}
    ,                        !- Fuel Higher Heating Value {kJ/kg}
    ,                        !- Design Heat Recovery Water Flow Rate {m3/s}
    ,                        !- Heat Recovery Inlet Node Name
    ,                        !- Heat Recovery Outlet Node Name
    NaturalGas,              !- Fuel Type
    80;                      !- Heat Recovery Maximum Temperature {C}


!-   ===========  ALL OBJECTS IN CLASS: GENERATOR:MICROTURBINE ===========

Generator:MicroTurbine,
    ,                        !- Name
    ,                        !- Reference Electrical Power Output {W}
    ,                        !- Minimum Full Load Electrical Power Output {W}
    ,                        !- Maximum Full Load Electrical Power Output {W}
    ,                        !- Reference Electrical Efficiency Using Lower Heating Value
    15,                      !- Reference Combustion Air Inlet Temperature {C}
    0.00638,                 !- Reference Combustion Air Inlet Humidity Ratio {kgWater/kgDryAir}
    ,                        !- Reference Elevation {m}
    ,                        !- Electrical Power Function of Temperature and Elevation Curve Name
    ,                        !- Electrical Efficiency Function of Temperature Curve Name
    ,                        !- Electrical Efficiency Function of Part Load Ratio Curve Name
    NaturalGas,              !- Fuel Type
    50000,                   !- Fuel Higher Heating Value {kJ/kg}
    45450,                   !- Fuel Lower Heating Value {kJ/kg}
    ,                        !- Standby Power {W}
    ,                        !- Ancillary Power {W}
    ,                        !- Ancillary Power Function of Fuel Input Curve Name
    ,                        !- Heat Recovery Water Inlet Node Name
    ,                        !- Heat Recovery Water Outlet Node Name
    ,                        !- Reference Thermal Efficiency Using Lower Heat Value
    ,                        !- Reference Inlet Water Temperature {C}
    PlantControl;            !- Heat Recovery Water Flow Operating Mode


!-   ===========  ALL OBJECTS IN CLASS: GENERATOR:PHOTOVOLTAIC ===========

Generator:Photovoltaic,
    ,                        !- Name
    ,                        !- Surface Name
    ,                        !- Photovoltaic Performance Object Type
    ,                        !- Module Performance Name
    Decoupled,               !- Heat Transfer Integration Mode
    1,                       !- Number of Series Strings in Parallel {dimensionless}
    1;                       !- Number of Modules in Series {dimensionless}


!-   ===========  ALL OBJECTS IN CLASS: PHOTOVOLTAICPERFORMANCE:SIMPLE ===========

PhotovoltaicPerformance:Simple,
    ;                        !- Name


!-   ===========  ALL OBJECTS IN CLASS: PHOTOVOLTAICPERFORMANCE:EQUIVALENTONE-DIODE ===========

PhotovoltaicPerformance:EquivalentOne-Diode,
    ,                        !- Name
    ,                        !- Cell type
    36,                      !- Number of Cells in Series {dimensionless}
    0.89,                    !- Active Area {m2}
    0.95,                    !- Transmittance Absorptance Product {dimensionless}
    1.12,                    !- Semiconductor Bandgap {eV}
    1000000,                 !- Shunt Resistance {ohms}
    6.5,                     !- Short Circuit Current {A}
    21.6,                    !- Open Circuit Voltage {V}
    25,                      !- Reference Temperature {C}
    1000,                    !- Reference Insolation {W/m2}
    5.9,                     !- Module Current at Maximum Power {A}
    17,                      !- Module Voltage at Maximum Power {V}
    0.02,                    !- Temperature Coefficient of Short Circuit Current {A/K}
    -.079,                   !- Temperature Coefficient of Open Circuit Voltage {V/K}
    20,                      !- Nominal Operating Cell Temperature Test Ambient Temperature {C}
    40,                      !- Nominal Operating Cell Temperature Test Cell Temperature {C}
    800,                     !- Nominal Operating Cell Temperature Test Insolation {W/m2}
    30,                      !- Module Heat Loss Coefficient {W/m2-K}
    50000;                   !- Total Heat Capacity {J/m2-K}


!-   ===========  ALL OBJECTS IN CLASS: PHOTOVOLTAICPERFORMANCE:SANDIA ===========

PhotovoltaicPerformance:Sandia,
    ,                        !- Name
    1,                       !- Active Area {m2}
    1,                       !- Number of Cells in Series {dimensionless}
    1;                       !- Number of Cells in Parallel {dimensionless}


!-   ===========  ALL OBJECTS IN CLASS: GENERATOR:PVWATTS ===========

Generator:PVWatts,
    ,                        !- Name
    ,                        !- PVWatts Version
    ,                        !- DC System Capacity {W}
    ,                        !- Module Type
    ,                        !- Array Type
    0.14,                    !- System Losses
    TiltAzimuth,             !- Array Geometry Type
    20,                      !- Tilt Angle {deg}
    180,                     !- Azimuth Angle {deg}
    ,                        !- Surface Name
    0.4;                     !- Ground Coverage Ratio


!-   ===========  ALL OBJECTS IN CLASS: ELECTRICLOADCENTER:INVERTER:PVWATTS ===========

ElectricLoadCenter:Inverter:PVWatts,
    ,                        !- Name
    1.1,                     !- DC to AC Size Ratio
    0.96;                    !- Inverter Efficiency


!-   ===========  ALL OBJECTS IN CLASS: GENERATOR:FUELCELL ===========

Generator:FuelCell,
    ;                        !- Name


!-   ===========  ALL OBJECTS IN CLASS: GENERATOR:FUELCELL:POWERMODULE ===========

Generator:FuelCell:PowerModule,
    ;                        !- Name


!-   ===========  ALL OBJECTS IN CLASS: GENERATOR:FUELCELL:AIRSUPPLY ===========

Generator:FuelCell:AirSupply,
    ;                        !- Name


!-   ===========  ALL OBJECTS IN CLASS: GENERATOR:FUELCELL:WATERSUPPLY ===========

Generator:FuelCell:WaterSupply,
    ;                        !- Name


!-   ===========  ALL OBJECTS IN CLASS: GENERATOR:FUELCELL:AUXILIARYHEATER ===========

Generator:FuelCell:AuxiliaryHeater,
    ;                        !- Name


!-   ===========  ALL OBJECTS IN CLASS: GENERATOR:FUELCELL:EXHAUSTGASTOWATERHEATEXCHANGER ===========

Generator:FuelCell:ExhaustGasToWaterHeatExchanger,
    ;                        !- Name


!-   ===========  ALL OBJECTS IN CLASS: GENERATOR:FUELCELL:ELECTRICALSTORAGE ===========

Generator:FuelCell:ElectricalStorage,
    ;                        !- Name


!-   ===========  ALL OBJECTS IN CLASS: GENERATOR:FUELCELL:INVERTER ===========

Generator:FuelCell:Inverter,
    ;                        !- Name


!-   ===========  ALL OBJECTS IN CLASS: GENERATOR:FUELCELL:STACKCOOLER ===========

Generator:FuelCell:StackCooler,
    ;                        !- Name


!-   ===========  ALL OBJECTS IN CLASS: GENERATOR:MICROCHP ===========

Generator:MicroCHP,
    ;                        !- Name


!-   ===========  ALL OBJECTS IN CLASS: GENERATOR:MICROCHP:NONNORMALIZEDPARAMETERS ===========

Generator:MicroCHP:NonNormalizedParameters,
    ;                        !- Name


!-   ===========  ALL OBJECTS IN CLASS: GENERATOR:FUELSUPPLY ===========

Generator:FuelSupply,
    ;                        !- Name


!-   ===========  ALL OBJECTS IN CLASS: GENERATOR:WINDTURBINE ===========

Generator:WindTurbine,
    ,                        !- Name
    ,                        !- Availability Schedule Name
    HorizontalAxisWindTurbine,  !- Rotor Type
    VariableSpeedVariablePitch,  !- Power Control
    ,                        !- Rated Rotor Speed {rev/min}
    ,                        !- Rotor Diameter {m}
    ,                        !- Overall Height {m}
    3,                       !- Number of Blades
    ,                        !- Rated Power {W}
    ,                        !- Rated Wind Speed {m/s}
    ,                        !- Cut In Wind Speed {m/s}
    ,                        !- Cut Out Wind Speed {m/s}
    0.835,                   !- Fraction system Efficiency
    5,                       !- Maximum Tip Speed Ratio
    0.25,                    !- Maximum Power Coefficient
    ,                        !- Annual Local Average Wind Speed {m/s}
    50,                      !- Height for Local Average Wind Speed {m}
    ,                        !- Blade Chord Area {m2}
    0.9,                     !- Blade Drag Coefficient
    0.05,                    !- Blade Lift Coefficient
    0.5176,                  !- Power Coefficient C1
    116,                     !- Power Coefficient C2
    0.4,                     !- Power Coefficient C3
    ,                        !- Power Coefficient C4
    5,                       !- Power Coefficient C5
    21;                      !- Power Coefficient C6


!-   ===========  ALL OBJECTS IN CLASS: ELECTRICLOADCENTER:GENERATORS ===========

ElectricLoadCenter:Generators,
    ,                        !- Name
    ,                        !- Generator 1 Name
    ,                        !- Generator 1 Object Type
    ,                        !- Generator 1 Rated Electric Power Output {W}
    ,                        !- Generator 1 Availability Schedule Name
    ;                        !- Generator 1 Rated Thermal to Electrical Power Ratio


!-   ===========  ALL OBJECTS IN CLASS: ELECTRICLOADCENTER:INVERTER:SIMPLE ===========

ElectricLoadCenter:Inverter:Simple,
    ;                        !- Name


!-   ===========  ALL OBJECTS IN CLASS: ELECTRICLOADCENTER:INVERTER:FUNCTIONOFPOWER ===========

ElectricLoadCenter:Inverter:FunctionOfPower,
    ;                        !- Name


!-   ===========  ALL OBJECTS IN CLASS: ELECTRICLOADCENTER:INVERTER:LOOKUPTABLE ===========

ElectricLoadCenter:Inverter:LookUpTable,
    ;                        !- Name


!-   ===========  ALL OBJECTS IN CLASS: ELECTRICLOADCENTER:STORAGE:SIMPLE ===========

ElectricLoadCenter:Storage:Simple,
    ;                        !- Name


!-   ===========  ALL OBJECTS IN CLASS: ELECTRICLOADCENTER:STORAGE:BATTERY ===========

ElectricLoadCenter:Storage:Battery,
    ,                        !- Name
    ,                        !- Availability Schedule Name
    ,                        !- Zone Name
    ,                        !- Radiative Fraction
    1,                       !- Number of Battery Modules in Parallel
    1,                       !- Number of Battery Modules in Series
    ,                        !- Maximum Module Capacity {Ah}
    1,                       !- Initial Fractional State of Charge
    ,                        !- Fraction of Available Charge Capacity
    ,                        !- Change Rate from Bound Charge to Available Charge {1/hr}
    ,                        !- Fully Charged Module Open Circuit Voltage {V}
    ,                        !- Fully Discharged Module Open Circuit Voltage {V}
    ,                        !- Voltage Change Curve Name for Charging
    ,                        !- Voltage Change Curve Name for Discharging
    ,                        !- Module Internal Electrical Resistance {ohms}
    ,                        !- Maximum Module Discharging Current {A}
    ,                        !- Module Cut-off Voltage {V}
    1,                       !- Module Charge Rate Limit
    No,                      !- Battery Life Calculation
    10;                      !- Number of Cycle Bins


!-   ===========  ALL OBJECTS IN CLASS: ELECTRICLOADCENTER:STORAGE:LIIONNMCBATTERY ===========

ElectricLoadCenter:Storage:LiIonNMCBattery,
    ,                        !- Name
    ,                        !- Availability Schedule Name
    ,                        !- Zone Name
    ,                        !- Radiative Fraction
    KandlerSmith,            !- Lifetime Model
    ,                        !- Number of Cells in Series
    ,                        !- Number of Strings in Parallel
    0.5,                     !- Initial Fractional State of Charge
    0.95,                    !- DC to DC Charging Efficiency
    ,                        !- Battery Mass {kg}
    ,                        !- Battery Surface Area {m2}
    1500,                    !- Battery Specific Heat Capacity {J/kg-K}
    7.5,                     !- Heat Transfer Coefficient Between Battery and Ambient {W/m2-K}
    4.2,                     !- Fully Charged Cell Voltage {V}
    3.53,                    !- Cell Voltage at End of Exponential Zone {V}
    3.342,                   !- Cell Voltage at End of Nominal Zone {V}
    3.342,                   !- Default Nominal Cell Voltage {V}
    3.2,                     !- Fully Charged Cell Capacity {Ah}
    0.8075,                  !- Fraction of Cell Capacity Removed at the End of Exponential Zone
    0.976875,                !- Fraction of Cell Capacity Removed at the End of Nominal Zone
    1,                       !- Charge Rate at Which Voltage vs Capacity Curve Was Generated
    0.09;                    !- Battery Cell Internal Electrical Resistance {ohms}


!-   ===========  ALL OBJECTS IN CLASS: ELECTRICLOADCENTER:TRANSFORMER ===========

ElectricLoadCenter:Transformer,
    ,                        !- Name
    ,                        !- Availability Schedule Name
    PowerInFromGrid,         !- Transformer Usage
    ,                        !- Zone Name
    ,                        !- Radiative Fraction
    ,                        !- Rated Capacity {VA}
    3,                       !- Phase
    Aluminum,                !- Conductor Material
    150,                     !- Full Load Temperature Rise {C}
    0.1,                     !- Fraction of Eddy Current Losses
    RatedLosses,             !- Performance Input Method
    ,                        !- Rated No Load Loss {W}
    ,                        !- Rated Load Loss {W}
    0.98,                    !- Nameplate Efficiency
    0.35,                    !- Per Unit Load for Nameplate Efficiency
    75,                      !- Reference Temperature for Nameplate Efficiency {C}
    ,                        !- Per Unit Load for Maximum Efficiency
    Yes;                     !- Consider Transformer Loss for Utility Cost


!-   ===========  ALL OBJECTS IN CLASS: ELECTRICLOADCENTER:DISTRIBUTION ===========

ElectricLoadCenter:Distribution,
    ,                        !- Name
    ,                        !- Generator List Name
    ,                        !- Generator Operation Scheme Type
    ,                        !- Generator Demand Limit Scheme Purchased Electric Demand Limit {W}
    ,                        !- Generator Track Schedule Name Scheme Schedule Name
    ,                        !- Generator Track Meter Scheme Meter Name
    AlternatingCurrent,      !- Electrical Buss Type
    ,                        !- Inverter Name
    ,                        !- Electrical Storage Object Name
    ,                        !- Transformer Object Name
    TrackFacilityElectricDemandStoreExcessOnSite,  !- Storage Operation Scheme
    ,                        !- Storage Control Track Meter Name
    ,                        !- Storage Converter Object Name
    1;                       !- Maximum Storage State of Charge Fraction


!-   ===========  ALL OBJECTS IN CLASS: ELECTRICLOADCENTER:STORAGE:CONVERTER ===========

ElectricLoadCenter:Storage:Converter,
    ,                        !- Name
    ,                        !- Availability Schedule Name
    SimpleFixed,             !- Power Conversion Efficiency Method
    0.95;                    !- Simple Fixed Efficiency


!-   ===========  ALL OBJECTS IN CLASS: WATERUSE:EQUIPMENT ===========

WaterUse:Equipment,
    ,                        !- Name
    General;                 !- End-Use Subcategory


!-   ===========  ALL OBJECTS IN CLASS: WATERUSE:CONNECTIONS ===========

WaterUse:Connections,
    ,                        !- Name
    ,                        !- Inlet Node Name
    ,                        !- Outlet Node Name
    ,                        !- Supply Water Storage Tank Name
    ,                        !- Reclamation Water Storage Tank Name
    ,                        !- Hot Water Supply Temperature Schedule Name
    ,                        !- Cold Water Supply Temperature Schedule Name
    None,                    !- Drain Water Heat Exchanger Type
    Plant;                   !- Drain Water Heat Exchanger Destination


!-   ===========  ALL OBJECTS IN CLASS: WATERUSE:STORAGE ===========

WaterUse:Storage,
    ;                        !- Name


!-   ===========  ALL OBJECTS IN CLASS: WATERUSE:WELL ===========

WaterUse:Well,
    ;                        !- Name


!-   ===========  ALL OBJECTS IN CLASS: WATERUSE:RAINCOLLECTOR ===========

WaterUse:RainCollector,
    ;                        !- Name


!-   ===========  ALL OBJECTS IN CLASS: FAULTMODEL:TEMPERATURESENSOROFFSET:OUTDOORAIR ===========

FaultModel:TemperatureSensorOffset:OutdoorAir,
    ,                        !- Name
    ,                        !- Availability Schedule Name
    ,                        !- Severity Schedule Name
    ,                        !- Controller Object Type
    ,                        !- Controller Object Name
    ;                        !- Temperature Sensor Offset {deltaC}


!-   ===========  ALL OBJECTS IN CLASS: FAULTMODEL:HUMIDITYSENSOROFFSET:OUTDOORAIR ===========

FaultModel:HumiditySensorOffset:OutdoorAir,
    ,                        !- Name
    ,                        !- Availability Schedule Name
    ,                        !- Severity Schedule Name
    ,                        !- Controller Object Type
    ,                        !- Controller Object Name
    ;                        !- Humidity Sensor Offset {kgWater/kgDryAir}


!-   ===========  ALL OBJECTS IN CLASS: FAULTMODEL:ENTHALPYSENSOROFFSET:OUTDOORAIR ===========

FaultModel:EnthalpySensorOffset:OutdoorAir,
    ,                        !- Name
    ,                        !- Availability Schedule Name
    ,                        !- Severity Schedule Name
    ,                        !- Controller Object Type
    ,                        !- Controller Object Name
    ;                        !- Enthalpy Sensor Offset {J/kg}


!-   ===========  ALL OBJECTS IN CLASS: FAULTMODEL:TEMPERATURESENSOROFFSET:RETURNAIR ===========

FaultModel:TemperatureSensorOffset:ReturnAir,
    ,                        !- Name
    ,                        !- Availability Schedule Name
    ,                        !- Severity Schedule Name
    ,                        !- Controller Object Type
    ,                        !- Controller Object Name
    ;                        !- Temperature Sensor Offset {deltaC}


!-   ===========  ALL OBJECTS IN CLASS: FAULTMODEL:ENTHALPYSENSOROFFSET:RETURNAIR ===========

FaultModel:EnthalpySensorOffset:ReturnAir,
    ,                        !- Name
    ,                        !- Availability Schedule Name
    ,                        !- Severity Schedule Name
    ,                        !- Controller Object Type
    ,                        !- Controller Object Name
    ;                        !- Enthalpy Sensor Offset {J/kg}


!-   ===========  ALL OBJECTS IN CLASS: FAULTMODEL:TEMPERATURESENSOROFFSET:CHILLERSUPPLYWATER ===========

FaultModel:TemperatureSensorOffset:ChillerSupplyWater,
    ,                        !- Name
    ,                        !- Availability Schedule Name
    ,                        !- Severity Schedule Name
    ,                        !- Chiller Object Type
    ,                        !- Chiller Object Name
    ;                        !- Reference Sensor Offset {deltaC}


!-   ===========  ALL OBJECTS IN CLASS: FAULTMODEL:TEMPERATURESENSOROFFSET:COILSUPPLYAIR ===========

FaultModel:TemperatureSensorOffset:CoilSupplyAir,
    ,                        !- Name
    ,                        !- Availability Schedule Name
    ,                        !- Severity Schedule Name
    ,                        !- Coil Object Type
    ,                        !- Coil Object Name
    ;                        !- Water Coil Controller Name


!-   ===========  ALL OBJECTS IN CLASS: FAULTMODEL:TEMPERATURESENSOROFFSET:CONDENSERSUPPLYWATER ===========

FaultModel:TemperatureSensorOffset:CondenserSupplyWater,
    ,                        !- Name
    ,                        !- Availability Schedule Name
    ,                        !- Severity Schedule Name
    ,                        !- Cooling Tower Object Type
    ,                        !- Cooling Tower Object Name
    ;                        !- Reference Sensor Offset {deltaC}


!-   ===========  ALL OBJECTS IN CLASS: FAULTMODEL:THERMOSTATOFFSET ===========

FaultModel:ThermostatOffset,
    ,                        !- Name
    ,                        !- Thermostat Name
    ,                        !- Availability Schedule Name
    ,                        !- Severity Schedule Name
    2;                       !- Reference Thermostat Offset {deltaC}


!-   ===========  ALL OBJECTS IN CLASS: FAULTMODEL:HUMIDISTATOFFSET ===========

FaultModel:HumidistatOffset,
    ,                        !- Name
    ,                        !- Humidistat Name
    ThermostatOffsetIndependent,  !- Humidistat Offset Type
    ,                        !- Availability Schedule Name
    ,                        !- Severity Schedule Name
    5;                       !- Reference Humidistat Offset {percent}


!-   ===========  ALL OBJECTS IN CLASS: FAULTMODEL:FOULING:AIRFILTER ===========

FaultModel:Fouling:AirFilter,
    ,                        !- Name
    ,                        !- Fan Object Type
    ,                        !- Fan Name
    ,                        !- Availability Schedule Name
    ,                        !- Pressure Fraction Schedule Name
    ;                        !- Fan Curve Name


!-   ===========  ALL OBJECTS IN CLASS: FAULTMODEL:FOULING:BOILER ===========

FaultModel:Fouling:Boiler,
    ,                        !- Name
    ,                        !- Availability Schedule Name
    ,                        !- Severity Schedule Name
    ,                        !- Boiler Object Type
    ,                        !- Boiler Object Name
    1;                       !- Fouling Factor {dimensionless}


!-   ===========  ALL OBJECTS IN CLASS: FAULTMODEL:FOULING:EVAPORATIVECOOLER ===========

FaultModel:Fouling:EvaporativeCooler,
    ,                        !- Name
    ,                        !- Availability Schedule Name
    ,                        !- Severity Schedule Name
    ,                        !- Evaporative Cooler Object Type
    ,                        !- Evaporative Cooler Object Name
    1;                       !- Fouling Factor {dimensionless}


!-   ===========  ALL OBJECTS IN CLASS: FAULTMODEL:FOULING:CHILLER ===========

FaultModel:Fouling:Chiller,
    ,                        !- Name
    ,                        !- Availability Schedule Name
    ,                        !- Severity Schedule Name
    ,                        !- Chiller Object Type
    ,                        !- Chiller Object Name
    1;                       !- Fouling Factor {dimensionless}


!-   ===========  ALL OBJECTS IN CLASS: FAULTMODEL:FOULING:COOLINGTOWER ===========

FaultModel:Fouling:CoolingTower,
    ,                        !- Name
    ,                        !- Availability Schedule Name
    ,                        !- Severity Schedule Name
    ,                        !- Cooling Tower Object Type
    ,                        !- Cooling Tower Object Name
    ;                        !- Reference UA Reduction Factor {dimensionless}


!-   ===========  ALL OBJECTS IN CLASS: FAULTMODEL:FOULING:COIL ===========

FaultModel:Fouling:Coil,
    ,                        !- Name
    ,                        !- Coil Name
    ,                        !- Availability Schedule Name
    ,                        !- Severity Schedule Name
    FouledUARated,           !- Fouling Input Method
    ,                        !- UAFouled {W/K}
    ,                        !- Water Side Fouling Factor {m2-K/W}
    ,                        !- Air Side Fouling Factor {m2-K/W}
    ,                        !- Outside Coil Surface Area {m2}
    0.07;                    !- Inside to Outside Coil Surface Area Ratio {dimensionless}


!-   ===========  ALL OBJECTS IN CLASS: MATRIX:TWODIMENSION ===========

Matrix:TwoDimension,
    ;                        !- Name


!-   ===========  ALL OBJECTS IN CLASS: HYBRIDMODEL:ZONE ===========

HybridModel:Zone,
    ,                        !- Name
    ,                        !- Zone Name
    No,                      !- Calculate Zone Internal Thermal Mass
    No,                      !- Calculate Zone Air Infiltration Rate
    No;                      !- Calculate Zone People Count


!-   ===========  ALL OBJECTS IN CLASS: CURVE:LINEAR ===========

Curve:Linear,
    ,                        !- Name
    ,                        !- Coefficient1 Constant
    ,                        !- Coefficient2 x
    ,                        !- Minimum Value of x
    ,                        !- Maximum Value of x
    ,                        !- Minimum Curve Output
    ,                        !- Maximum Curve Output
    Dimensionless,           !- Input Unit Type for X
    Dimensionless;           !- Output Unit Type


!-   ===========  ALL OBJECTS IN CLASS: CURVE:QUADLINEAR ===========

Curve:QuadLinear,
    ,                        !- Name
    ,                        !- Coefficient1 Constant
    ,                        !- Coefficient2 w
    ,                        !- Coefficient3 x
    ,                        !- Coefficient4 y
    ,                        !- Coefficient5 z
    ,                        !- Minimum Value of w
    ,                        !- Maximum Value of w
    ,                        !- Minimum Value of x
    ,                        !- Maximum Value of x
    ,                        !- Minimum Value of y
    ,                        !- Maximum Value of y
    ,                        !- Minimum Value of z
    ,                        !- Maximum Value of z
    ,                        !- Minimum Curve Output
    ,                        !- Maximum Curve Output
    Dimensionless,           !- Input Unit Type for w
    Dimensionless,           !- Input Unit Type for x
    Dimensionless,           !- Input Unit Type for y
    Dimensionless;           !- Input Unit Type for z


!-   ===========  ALL OBJECTS IN CLASS: CURVE:QUINTLINEAR ===========

Curve:QuintLinear,
    ,                        !- Name
    ,                        !- Coefficient1 Constant
    ,                        !- Coefficient2 v
    ,                        !- Coefficient3 w
    ,                        !- Coefficient4 x
    ,                        !- Coefficient5 y
    ,                        !- Coefficient6 z
    ,                        !- Minimum Value of v
    ,                        !- Maximum Value of v
    ,                        !- Minimum Value of w
    ,                        !- Maximum Value of w
    ,                        !- Minimum Value of x
    ,                        !- Maximum Value of x
    ,                        !- Minimum Value of y
    ,                        !- Maximum Value of y
    ,                        !- Minimum Value of z
    ,                        !- Maximum Value of z
    ,                        !- Minimum Curve Output
    ,                        !- Maximum Curve Output
    Dimensionless,           !- Input Unit Type for v
    Dimensionless,           !- Input Unit Type for w
    Dimensionless,           !- Input Unit Type for x
    Dimensionless,           !- Input Unit Type for y
    Dimensionless;           !- Input Unit Type for z


!-   ===========  ALL OBJECTS IN CLASS: CURVE:QUADRATIC ===========

Curve:Quadratic,
    ,                        !- Name
    ,                        !- Coefficient1 Constant
    ,                        !- Coefficient2 x
    ,                        !- Coefficient3 x**2
    ,                        !- Minimum Value of x
    ,                        !- Maximum Value of x
    ,                        !- Minimum Curve Output
    ,                        !- Maximum Curve Output
    Dimensionless,           !- Input Unit Type for X
    Dimensionless;           !- Output Unit Type


!-   ===========  ALL OBJECTS IN CLASS: CURVE:CUBIC ===========

Curve:Cubic,
    ,                        !- Name
    ,                        !- Coefficient1 Constant
    ,                        !- Coefficient2 x
    ,                        !- Coefficient3 x**2
    ,                        !- Coefficient4 x**3
    ,                        !- Minimum Value of x
    ,                        !- Maximum Value of x
    ,                        !- Minimum Curve Output
    ,                        !- Maximum Curve Output
    Dimensionless,           !- Input Unit Type for X
    Dimensionless;           !- Output Unit Type


!-   ===========  ALL OBJECTS IN CLASS: CURVE:QUARTIC ===========

Curve:Quartic,
    ,                        !- Name
    ,                        !- Coefficient1 Constant
    ,                        !- Coefficient2 x
    ,                        !- Coefficient3 x**2
    ,                        !- Coefficient4 x**3
    ,                        !- Coefficient5 x**4
    ,                        !- Minimum Value of x
    ,                        !- Maximum Value of x
    ,                        !- Minimum Curve Output
    ,                        !- Maximum Curve Output
    Dimensionless,           !- Input Unit Type for X
    Dimensionless;           !- Output Unit Type


!-   ===========  ALL OBJECTS IN CLASS: CURVE:EXPONENT ===========

Curve:Exponent,
    ,                        !- Name
    ,                        !- Coefficient1 Constant
    ,                        !- Coefficient2 Constant
    ,                        !- Coefficient3 Constant
    ,                        !- Minimum Value of x
    ,                        !- Maximum Value of x
    ,                        !- Minimum Curve Output
    ,                        !- Maximum Curve Output
    Dimensionless,           !- Input Unit Type for X
    Dimensionless;           !- Output Unit Type


!-   ===========  ALL OBJECTS IN CLASS: CURVE:BICUBIC ===========

Curve:Bicubic,
    ,                        !- Name
    ,                        !- Coefficient1 Constant
    ,                        !- Coefficient2 x
    ,                        !- Coefficient3 x**2
    ,                        !- Coefficient4 y
    ,                        !- Coefficient5 y**2
    ,                        !- Coefficient6 x*y
    ,                        !- Coefficient7 x**3
    ,                        !- Coefficient8 y**3
    ,                        !- Coefficient9 x**2*y
    ,                        !- Coefficient10 x*y**2
    ,                        !- Minimum Value of x
    ,                        !- Maximum Value of x
    ,                        !- Minimum Value of y
    ,                        !- Maximum Value of y
    ,                        !- Minimum Curve Output
    ,                        !- Maximum Curve Output
    Dimensionless,           !- Input Unit Type for X
    Dimensionless,           !- Input Unit Type for Y
    Dimensionless;           !- Output Unit Type


!-   ===========  ALL OBJECTS IN CLASS: CURVE:BIQUADRATIC ===========

Curve:Biquadratic,
    ,                        !- Name
    ,                        !- Coefficient1 Constant
    ,                        !- Coefficient2 x
    ,                        !- Coefficient3 x**2
    ,                        !- Coefficient4 y
    ,                        !- Coefficient5 y**2
    ,                        !- Coefficient6 x*y
    ,                        !- Minimum Value of x
    ,                        !- Maximum Value of x
    ,                        !- Minimum Value of y
    ,                        !- Maximum Value of y
    ,                        !- Minimum Curve Output
    ,                        !- Maximum Curve Output
    Dimensionless,           !- Input Unit Type for X
    Dimensionless,           !- Input Unit Type for Y
    Dimensionless;           !- Output Unit Type


!-   ===========  ALL OBJECTS IN CLASS: CURVE:QUADRATICLINEAR ===========

Curve:QuadraticLinear,
    ,                        !- Name
    ,                        !- Coefficient1 Constant
    ,                        !- Coefficient2 x
    ,                        !- Coefficient3 x**2
    ,                        !- Coefficient4 y
    ,                        !- Coefficient5 x*y
    ,                        !- Coefficient6 x**2*y
    ,                        !- Minimum Value of x
    ,                        !- Maximum Value of x
    ,                        !- Minimum Value of y
    ,                        !- Maximum Value of y
    ,                        !- Minimum Curve Output
    ,                        !- Maximum Curve Output
    Dimensionless,           !- Input Unit Type for X
    Dimensionless,           !- Input Unit Type for Y
    Dimensionless;           !- Output Unit Type


!-   ===========  ALL OBJECTS IN CLASS: CURVE:CUBICLINEAR ===========

Curve:CubicLinear,
    ,                        !- Name
    ,                        !- Coefficient1 Constant
    ,                        !- Coefficient2 x
    ,                        !- Coefficient3 x**2
    ,                        !- Coefficient4 x**3
    ,                        !- Coefficient5 y
    ,                        !- Coefficient6 x*y
    ,                        !- Minimum Value of x
    ,                        !- Maximum Value of x
    ,                        !- Minimum Value of y
    ,                        !- Maximum Value of y
    ,                        !- Minimum Curve Output
    ,                        !- Maximum Curve Output
    Dimensionless,           !- Input Unit Type for X
    Dimensionless,           !- Input Unit Type for Y
    Dimensionless;           !- Output Unit Type


!-   ===========  ALL OBJECTS IN CLASS: CURVE:TRIQUADRATIC ===========

Curve:Triquadratic,
    ,                        !- Name
    ,                        !- Coefficient1 Constant
    ,                        !- Coefficient2 x**2
    ,                        !- Coefficient3 x
    ,                        !- Coefficient4 y**2
    ,                        !- Coefficient5 y
    ,                        !- Coefficient6 z**2
    ,                        !- Coefficient7 z
    ,                        !- Coefficient8 x**2*y**2
    ,                        !- Coefficient9 x*y
    ,                        !- Coefficient10 x*y**2
    ,                        !- Coefficient11 x**2*y
    ,                        !- Coefficient12 x**2*z**2
    ,                        !- Coefficient13 x*z
    ,                        !- Coefficient14 x*z**2
    ,                        !- Coefficient15 x**2*z
    ,                        !- Coefficient16 y**2*z**2
    ,                        !- Coefficient17 y*z
    ,                        !- Coefficient18 y*z**2
    ,                        !- Coefficient19 y**2*z
    ,                        !- Coefficient20 x**2*y**2*z**2
    ,                        !- Coefficient21 x**2*y**2*z
    ,                        !- Coefficient22 x**2*y*z**2
    ,                        !- Coefficient23 x*y**2*z**2
    ,                        !- Coefficient24 x**2*y*z
    ,                        !- Coefficient25 x*y**2*z
    ,                        !- Coefficient26 x*y*z**2
    ,                        !- Coefficient27 x*y*z
    ,                        !- Minimum Value of x
    ,                        !- Maximum Value of x
    ,                        !- Minimum Value of y
    ,                        !- Maximum Value of y
    ,                        !- Minimum Value of z
    ,                        !- Maximum Value of z
    ,                        !- Minimum Curve Output
    ,                        !- Maximum Curve Output
    Dimensionless,           !- Input Unit Type for X
    Dimensionless,           !- Input Unit Type for Y
    Dimensionless,           !- Input Unit Type for Z
    Dimensionless;           !- Output Unit Type


!-   ===========  ALL OBJECTS IN CLASS: CURVE:FUNCTIONAL:PRESSUREDROP ===========

Curve:Functional:PressureDrop,
    ,                        !- Name
    ,                        !- Diameter {m}
    ,                        !- Minor Loss Coefficient {dimensionless}
    ,                        !- Length {m}
    ;                        !- Roughness {m}


!-   ===========  ALL OBJECTS IN CLASS: CURVE:FANPRESSURERISE ===========

Curve:FanPressureRise,
    ;                        !- Name


!-   ===========  ALL OBJECTS IN CLASS: CURVE:EXPONENTIALSKEWNORMAL ===========

Curve:ExponentialSkewNormal,
    ,                        !- Name
    ,                        !- Coefficient1 C1
    ,                        !- Coefficient2 C2
    ,                        !- Coefficient3 C3
    ,                        !- Coefficient4 C4
    ,                        !- Minimum Value of x
    ,                        !- Maximum Value of x
    ,                        !- Minimum Curve Output
    ,                        !- Maximum Curve Output
    Dimensionless,           !- Input Unit Type for x
    Dimensionless;           !- Output Unit Type


!-   ===========  ALL OBJECTS IN CLASS: CURVE:SIGMOID ===========

Curve:Sigmoid,
    ,                        !- Name
    ,                        !- Coefficient1 C1
    ,                        !- Coefficient2 C2
    ,                        !- Coefficient3 C3
    ,                        !- Coefficient4 C4
    ,                        !- Coefficient5 C5
    ,                        !- Minimum Value of x
    ,                        !- Maximum Value of x
    ,                        !- Minimum Curve Output
    ,                        !- Maximum Curve Output
    Dimensionless,           !- Input Unit Type for x
    Dimensionless;           !- Output Unit Type


!-   ===========  ALL OBJECTS IN CLASS: CURVE:RECTANGULARHYPERBOLA1 ===========

Curve:RectangularHyperbola1,
    ,                        !- Name
    ,                        !- Coefficient1 C1
    ,                        !- Coefficient2 C2
    ,                        !- Coefficient3 C3
    ,                        !- Minimum Value of x
    ,                        !- Maximum Value of x
    ,                        !- Minimum Curve Output
    ,                        !- Maximum Curve Output
    Dimensionless,           !- Input Unit Type for x
    Dimensionless;           !- Output Unit Type


!-   ===========  ALL OBJECTS IN CLASS: CURVE:RECTANGULARHYPERBOLA2 ===========

Curve:RectangularHyperbola2,
    ,                        !- Name
    ,                        !- Coefficient1 C1
    ,                        !- Coefficient2 C2
    ,                        !- Coefficient3 C3
    ,                        !- Minimum Value of x
    ,                        !- Maximum Value of x
    ,                        !- Minimum Curve Output
    ,                        !- Maximum Curve Output
    Dimensionless,           !- Input Unit Type for x
    Dimensionless;           !- Output Unit Type


!-   ===========  ALL OBJECTS IN CLASS: CURVE:EXPONENTIALDECAY ===========

Curve:ExponentialDecay,
    ,                        !- Name
    ,                        !- Coefficient1 C1
    ,                        !- Coefficient2 C2
    ,                        !- Coefficient3 C3
    ,                        !- Minimum Value of x
    ,                        !- Maximum Value of x
    ,                        !- Minimum Curve Output
    ,                        !- Maximum Curve Output
    Dimensionless,           !- Input Unit Type for x
    Dimensionless;           !- Output Unit Type


!-   ===========  ALL OBJECTS IN CLASS: CURVE:DOUBLEEXPONENTIALDECAY ===========

Curve:DoubleExponentialDecay,
    ,                        !- Name
    ,                        !- Coefficient1 C1
    ,                        !- Coefficient2 C2
    ,                        !- Coefficient3 C3
    ,                        !- Coefficient4 C4
    ,                        !- Coefficient5 C5
    ,                        !- Minimum Value of x
    ,                        !- Maximum Value of x
    ,                        !- Minimum Curve Output
    ,                        !- Maximum Curve Output
    Dimensionless,           !- Input Unit Type for x
    Dimensionless;           !- Output Unit Type


!-   ===========  ALL OBJECTS IN CLASS: CURVE:CHILLERPARTLOADWITHLIFT ===========

Curve:ChillerPartLoadWithLift,
    ,                        !- Name
    ,                        !- Coefficient1 C1
    ,                        !- Coefficient2 C2
    ,                        !- Coefficient3 C3
    ,                        !- Coefficient4 C4
    ,                        !- Coefficient5 C5
    ,                        !- Coefficient6 C6
    ,                        !- Coefficient7 C7
    ,                        !- Coefficient8 C8
    ,                        !- Coefficient9 C9
    ,                        !- Coefficient10 C10
    ,                        !- Coefficient11 C11
    ,                        !- Coefficient12 C12
    ,                        !- Minimum Value of x
    ,                        !- Maximum Value of x
    ,                        !- Minimum Value of y
    ,                        !- Maximum Value of y
    ,                        !- Minimum Value of z
    ,                        !- Maximum Value of z
    ,                        !- Minimum Curve Output
    ,                        !- Maximum Curve Output
    Dimensionless,           !- Input Unit Type for x
    Dimensionless,           !- Input Unit Type for y
    Dimensionless,           !- Input Unit Type for z
    Dimensionless;           !- Output Unit Type


!-   ===========  ALL OBJECTS IN CLASS: TABLE:INDEPENDENTVARIABLE ===========

Table:IndependentVariable,
    ,                        !- Name
    Linear,                  !- Interpolation Method
    Constant,                !- Extrapolation Method
    ,                        !- Minimum Value
    ,                        !- Maximum Value
    ,                        !- Normalization Reference Value
    Dimensionless;           !- Unit Type


!-   ===========  ALL OBJECTS IN CLASS: TABLE:INDEPENDENTVARIABLELIST ===========

Table:IndependentVariableList,
    ;                        !- Name


!-   ===========  ALL OBJECTS IN CLASS: TABLE:LOOKUP ===========

Table:Lookup,
    ,                        !- Name
    ,                        !- Independent Variable List Name
    None,                    !- Normalization Method
    1,                       !- Normalization Divisor
    ,                        !- Minimum Output
    ,                        !- Maximum Output
    Dimensionless;           !- Output Unit Type


!-   ===========  ALL OBJECTS IN CLASS: FLUIDPROPERTIES:NAME ===========

FluidProperties:Name,
    ;                        !- Fluid Name


!-   ===========  ALL OBJECTS IN CLASS: FLUIDPROPERTIES:GLYCOLCONCENTRATION ===========

FluidProperties:GlycolConcentration,
    ;                        !- Name


!-   ===========  ALL OBJECTS IN CLASS: FLUIDPROPERTIES:TEMPERATURES ===========

FluidProperties:Temperatures,
    ;                        !- Name


!-   ===========  ALL OBJECTS IN CLASS: FLUIDPROPERTIES:SATURATED ===========

FluidProperties:Saturated,
    ;                        !- Fluid Name


!-   ===========  ALL OBJECTS IN CLASS: FLUIDPROPERTIES:SUPERHEATED ===========

FluidProperties:Superheated,
    ;                        !- Fluid Name


!-   ===========  ALL OBJECTS IN CLASS: FLUIDPROPERTIES:CONCENTRATION ===========

FluidProperties:Concentration,
    ;                        !- Fluid Name


!-   ===========  ALL OBJECTS IN CLASS: CURRENCYTYPE ===========

CurrencyType,
    ;                        !- Monetary Unit


!-   ===========  ALL OBJECTS IN CLASS: COMPONENTCOST:ADJUSTMENTS ===========

ComponentCost:Adjustments,
    ;                        !- Miscellaneous Cost per Conditioned Area {$/m2}


!-   ===========  ALL OBJECTS IN CLASS: COMPONENTCOST:REFERENCE ===========

ComponentCost:Reference,
    ;                        !- Reference Building Line Item Costs {$}


!-   ===========  ALL OBJECTS IN CLASS: COMPONENTCOST:LINEITEM ===========

ComponentCost:LineItem,
    ;                        !- Name


!-   ===========  ALL OBJECTS IN CLASS: UTILITYCOST:TARIFF ===========

UtilityCost:Tariff,
    ,                        !- Name
    ,                        !- Output Meter Name
    ,                        !- Conversion Factor Choice
    ,                        !- Energy Conversion Factor
    ,                        !- Demand Conversion Factor
    ,                        !- Time of Use Period Schedule Name
    ,                        !- Season Schedule Name
    ,                        !- Month Schedule Name
    ,                        !- Demand Window Length
    ,                        !- Monthly Charge or Variable Name
    ,                        !- Minimum Monthly Charge or Variable Name
    ,                        !- Real Time Pricing Charge Schedule Name
    ,                        !- Customer Baseline Load Schedule Name
    ,                        !- Group Name
    BuyFromUtility;          !- Buy Or Sell


!-   ===========  ALL OBJECTS IN CLASS: UTILITYCOST:QUALIFY ===========

UtilityCost:Qualify,
    ,                        !- Utility Cost Qualify Name
    ,                        !- Tariff Name
    ,                        !- Variable Name
    Maximum,                 !- Qualify Type
    ,                        !- Threshold Value or Variable Name
    ,                        !- Season
    Consecutive;             !- Threshold Test


!-   ===========  ALL OBJECTS IN CLASS: UTILITYCOST:CHARGE:SIMPLE ===========

UtilityCost:Charge:Simple,
    ;                        !- Utility Cost Charge Simple Name


!-   ===========  ALL OBJECTS IN CLASS: UTILITYCOST:CHARGE:BLOCK ===========

UtilityCost:Charge:Block,
    ,                        !- Utility Cost Charge Block Name
    ,                        !- Tariff Name
    ,                        !- Source Variable
    Annual;                  !- Season


!-   ===========  ALL OBJECTS IN CLASS: UTILITYCOST:RATCHET ===========

UtilityCost:Ratchet,
    ;                        !- Name


!-   ===========  ALL OBJECTS IN CLASS: UTILITYCOST:VARIABLE ===========

UtilityCost:Variable,
    ,                        !- Name
    ,                        !- Tariff Name
    Dimensionless;           !- Variable Type


!-   ===========  ALL OBJECTS IN CLASS: UTILITYCOST:COMPUTATION ===========

UtilityCost:Computation,
    ;                        !- Name


!-   ===========  ALL OBJECTS IN CLASS: LIFECYCLECOST:PARAMETERS ===========

LifeCycleCost:Parameters,
    ,                        !- Name
    EndOfYear,               !- Discounting Convention
    ConstantDollar,          !- Inflation Approach
    ,                        !- Real Discount Rate
    ,                        !- Nominal Discount Rate
    ,                        !- Inflation
    January,                 !- Base Date Month
    ,                        !- Base Date Year
    January,                 !- Service Date Month
    ,                        !- Service Date Year
    ,                        !- Length of Study Period in Years
    ,                        !- Tax rate
    None;                    !- Depreciation Method


!-   ===========  ALL OBJECTS IN CLASS: LIFECYCLECOST:RECURRINGCOSTS ===========

LifeCycleCost:RecurringCosts,
    ,                        !- Name
    Maintenance,             !- Category
    ,                        !- Cost
    ServicePeriod,           !- Start of Costs
    ,                        !- Years from Start
    ,                        !- Months from Start
    1;                       !- Repeat Period Years


!-   ===========  ALL OBJECTS IN CLASS: LIFECYCLECOST:NONRECURRINGCOST ===========

LifeCycleCost:NonrecurringCost,
    ,                        !- Name
    Construction,            !- Category
    ,                        !- Cost
    ServicePeriod;           !- Start of Costs


!-   ===========  ALL OBJECTS IN CLASS: LIFECYCLECOST:USEPRICEESCALATION ===========

LifeCycleCost:UsePriceEscalation,
    ,                        !- LCC Price Escalation Name
    ,                        !- Resource
    ,                        !- Escalation Start Year
    January;                 !- Escalation Start Month


!-   ===========  ALL OBJECTS IN CLASS: LIFECYCLECOST:USEADJUSTMENT ===========

LifeCycleCost:UseAdjustment,
    ;                        !- Name


!-   ===========  ALL OBJECTS IN CLASS: PARAMETRIC:SETVALUEFORRUN ===========

Parametric:SetValueForRun,
    ,                        !- Name
    ;                        !- Value for Run 1


!-   ===========  ALL OBJECTS IN CLASS: PARAMETRIC:LOGIC ===========

Parametric:Logic,
    ,                        !- Name
    ;                        !- Parametric Logic Line 1


!-   ===========  ALL OBJECTS IN CLASS: PARAMETRIC:RUNCONTROL ===========

Parametric:RunControl,
    ,                        !- Name
    Yes;                     !- Perform Run 1


!-   ===========  ALL OBJECTS IN CLASS: PARAMETRIC:FILENAMESUFFIX ===========

Parametric:FileNameSuffix,
    ,                        !- Name
    ;                        !- Suffix for File Name in Run 1


!-   ===========  ALL OBJECTS IN CLASS: OUTPUT:VARIABLEDICTIONARY ===========

Output:VariableDictionary,
    regular;                 !- Key Field


!-   ===========  ALL OBJECTS IN CLASS: OUTPUT:SURFACES:LIST ===========

Output:Surfaces:List,
    ;                        !- Report Type


!-   ===========  ALL OBJECTS IN CLASS: OUTPUT:SURFACES:DRAWING ===========

Output:Surfaces:Drawing,
    ,                        !- Report Type
    Triangulate3DFace;       !- Report Specifications 1


!-   ===========  ALL OBJECTS IN CLASS: OUTPUT:SCHEDULES ===========

Output:Schedules,
    ;                        !- Key Field


!-   ===========  ALL OBJECTS IN CLASS: OUTPUT:CONSTRUCTIONS ===========

Output:Constructions,
    ;                        !- Details Type 1


!-   ===========  ALL OBJECTS IN CLASS: OUTPUT:ENERGYMANAGEMENTSYSTEM ===========

Output:EnergyManagementSystem,
    None,                    !- Actuator Availability Dictionary Reporting
    None,                    !- Internal Variable Availability Dictionary Reporting
    None;                    !- EMS Runtime Language Debug Output Level


!-   ===========  ALL OBJECTS IN CLASS: OUTPUTCONTROL:SURFACECOLORSCHEME ===========

OutputControl:SurfaceColorScheme,
    ;                        !- Name


!-   ===========  ALL OBJECTS IN CLASS: OUTPUT:TABLE:SUMMARYREPORTS ===========

Output:Table:SummaryReports,
    ;                        !- Report 1 Name


!-   ===========  ALL OBJECTS IN CLASS: OUTPUT:TABLE:TIMEBINS ===========

Output:Table:TimeBins,
    *,                       !- Key Value
    ,                        !- Variable Name
    ,                        !- Interval Start
    ,                        !- Interval Size
    ;                        !- Interval Count


!-   ===========  ALL OBJECTS IN CLASS: OUTPUT:TABLE:MONTHLY ===========

Output:Table:Monthly,
    ,                        !- Name
    2;                       !- Digits After Decimal


!-   ===========  ALL OBJECTS IN CLASS: OUTPUT:TABLE:ANNUAL ===========

Output:Table:Annual,
    ,                        !- Name
    ,                        !- Filter
    ,                        !- Schedule Name
    ,                        !- Variable or Meter or EMS Variable or Field 1 Name
    ,                        !- Aggregation Type for Variable or Meter 1
    2,                       !- Digits After Decimal 1
    ,                        !- Variable or Meter or EMS Variable or Field 2 Name
    ,                        !- Aggregation Type for Variable or Meter 2
    2,                       !- Digits After Decimal 2
    ,                        !- Variable or Meter or EMS Variable or Field 3 Name
    ,                        !- Aggregation Type for Variable or Meter 3
    2,                       !- Digits After Decimal 3
    ,                        !- Variable or Meter or EMS Variable or Field 4 Name
    ,                        !- Aggregation Type for Variable or Meter 4
    2,                       !- Digits After Decimal 4
    ,                        !- Variable or Meter or EMS Variable or Field 5 Name
    ,                        !- Aggregation Type for Variable or Meter 5
    2,                       !- Digits After Decimal 5
    ,                        !- Variable or Meter or EMS Variable or Field 6 Name
    ,                        !- Aggregation Type for Variable or Meter 6
    2,                       !- Digits After Decimal 6
    ,                        !- Variable or Meter or EMS Variable or Field 7 Name
    ,                        !- Aggregation Type for Variable or Meter 7
    2,                       !- Digits After Decimal 7
    ,                        !- Variable or Meter or EMS Variable or Field 8 Name
    ,                        !- Aggregation Type for Variable or Meter 8
    2,                       !- Digits After Decimal 8
    ,                        !- Variable or Meter or EMS Variable or Field 9 Name
    ,                        !- Aggregation Type for Variable or Meter 9
    2,                       !- Digits After Decimal 9
    ,                        !- Variable or Meter or EMS Variable or Field 10 Name
    ,                        !- Aggregation Type for Variable or Meter 10
    2,                       !- Digits After Decimal 10
    ,                        !- Variable or Meter or EMS Variable or Field 11 Name
    ,                        !- Aggregation Type for Variable or Meter 11
    2,                       !- Digits After Decimal 11
    ,                        !- Variable or Meter or EMS Variable or Field 12 Name
    ,                        !- Aggregation Type for Variable or Meter 12
    2,                       !- Digits After Decimal 12
    ,                        !- Variable or Meter or EMS Variable or Field 13 Name
    ,                        !- Aggregation Type for Variable or Meter 13
    2,                       !- Digits After Decimal 13
    ,                        !- Variable or Meter or EMS Variable or Field 14 Name
    ,                        !- Aggregation Type for Variable or Meter 14
    2,                       !- Digits After Decimal 14
    ,                        !- Variable or Meter or EMS Variable or Field 15 Name
    ,                        !- Aggregation Type for Variable or Meter 15
    2;                       !- Digits After Decimal 15


!-   ===========  ALL OBJECTS IN CLASS: OUTPUTCONTROL:TABLE:STYLE ===========

OutputControl:Table:Style,
    Comma,                   !- Column Separator
    None;                    !- Unit Conversion


!-   ===========  ALL OBJECTS IN CLASS: OUTPUTCONTROL:REPORTINGTOLERANCES ===========

OutputControl:ReportingTolerances,
    0.2,                     !- Tolerance for Time Heating Setpoint Not Met {deltaC}
    0.2;                     !- Tolerance for Time Cooling Setpoint Not Met {deltaC}


!-   ===========  ALL OBJECTS IN CLASS: OUTPUT:VARIABLE ===========

Output:Variable,
    *,                       !- Key Value
    ,                        !- Variable Name
    Hourly;                  !- Reporting Frequency


!-   ===========  ALL OBJECTS IN CLASS: OUTPUT:METER ===========

Output:Meter,
    ,                        !- Key Name
    Hourly;                  !- Reporting Frequency


!-   ===========  ALL OBJECTS IN CLASS: OUTPUT:METER:METERFILEONLY ===========

Output:Meter:MeterFileOnly,
    ,                        !- Key Name
    Hourly;                  !- Reporting Frequency


!-   ===========  ALL OBJECTS IN CLASS: OUTPUT:METER:CUMULATIVE ===========

Output:Meter:Cumulative,
    ,                        !- Key Name
    Hourly;                  !- Reporting Frequency


!-   ===========  ALL OBJECTS IN CLASS: OUTPUT:METER:CUMULATIVE:METERFILEONLY ===========

Output:Meter:Cumulative:MeterFileOnly,
    ,                        !- Key Name
    Hourly;                  !- Reporting Frequency


!-   ===========  ALL OBJECTS IN CLASS: METER:CUSTOM ===========

Meter:Custom,
    ;                        !- Name


!-   ===========  ALL OBJECTS IN CLASS: METER:CUSTOMDECREMENT ===========

Meter:CustomDecrement,
    ;                        !- Name


!-   ===========  ALL OBJECTS IN CLASS: OUTPUTCONTROL:FILES ===========

OutputControl:Files,
    No,                      !- Output CSV
    Yes,                     !- Output MTR
    Yes,                     !- Output ESO
    Yes,                     !- Output EIO
    Yes,                     !- Output Tabular
    Yes,                     !- Output SQLite
    Yes,                     !- Output JSON
    Yes,                     !- Output AUDIT
    Yes,                     !- Output Zone Sizing
    Yes,                     !- Output System Sizing
    Yes,                     !- Output DXF
    Yes,                     !- Output BND
    Yes,                     !- Output RDD
    Yes,                     !- Output MDD
    Yes,                     !- Output MTD
    Yes,                     !- Output END
    Yes,                     !- Output SHD
    Yes,                     !- Output DFS
    Yes,                     !- Output GLHE
    Yes,                     !- Output DelightIn
    Yes,                     !- Output DelightELdmp
    Yes,                     !- Output DelightDFdmp
    Yes,                     !- Output EDD
    Yes,                     !- Output DBG
    Yes,                     !- Output PerfLog
    Yes,                     !- Output SLN
    Yes,                     !- Output SCI
    Yes,                     !- Output WRL
    Yes,                     !- Output Screen
    Yes,                     !- Output ExtShd
    Yes;                     !- Output Tarcog


!-   ===========  ALL OBJECTS IN CLASS: OUTPUT:JSON ===========

Output:JSON,
    ,                        !- Option Type
    Yes,                     !- Output JSON
    No,                      !- Output CBOR
    No;                      !- Output MessagePack


!-   ===========  ALL OBJECTS IN CLASS: OUTPUT:SQLITE ===========

Output:SQLite,
    ,                        !- Option Type
    UseOutputControlTableStyle;  !- Unit Conversion for Tabular Data


!-   ===========  ALL OBJECTS IN CLASS: OUTPUT:ENVIRONMENTALIMPACTFACTORS ===========

Output:EnvironmentalImpactFactors,
    ;                        !- Reporting Frequency


!-   ===========  ALL OBJECTS IN CLASS: ENVIRONMENTALIMPACTFACTORS ===========

EnvironmentalImpactFactors,
    0.3,                     !- District Heating Efficiency
    3,                       !- District Cooling COP {W/W}
    0.25,                    !- Steam Conversion Efficiency
    80.7272,                 !- Total Carbon Equivalent Emission Factor From N2O {kg/kg}
    6.2727,                  !- Total Carbon Equivalent Emission Factor From CH4 {kg/kg}
    0.2727;                  !- Total Carbon Equivalent Emission Factor From CO2 {kg/kg}


!-   ===========  ALL OBJECTS IN CLASS: FUELFACTORS ===========

FuelFactors,
    ;                        !- Existing Fuel Resource Name


!-   ===========  ALL OBJECTS IN CLASS: OUTPUT:DIAGNOSTICS ===========

Output:Diagnostics,
    ;                        !- Key 1


!-   ===========  ALL OBJECTS IN CLASS: OUTPUT:DEBUGGINGDATA ===========

Output:DebuggingData,
    No,                      !- Report Debugging Data
    No;                      !- Report During Warmup


!-   ===========  ALL OBJECTS IN CLASS: OUTPUT:PREPROCESSORMESSAGE ===========

Output:PreprocessorMessage,
    ;                        !- Preprocessor Name


!-   ===========  ALL OBJECTS IN CLASS: PYTHONPLUGIN:SEARCHPATHS ===========

PythonPlugin:SearchPaths,
    ,                        !- Name
    Yes,                     !- Add Current Working Directory to Search Path
    Yes,                     !- Add Input File Directory to Search Path
    Yes;                     !- Add epin Environment Variable to Search Path


!-   ===========  ALL OBJECTS IN CLASS: PYTHONPLUGIN:INSTANCE ===========

PythonPlugin:Instance,
    ,                        !- Name
    No,                      !- Run During Warmup Days
    ,                        !- Python Module Name
    ;                        !- Plugin Class Name


!-   ===========  ALL OBJECTS IN CLASS: PYTHONPLUGIN:VARIABLES ===========

PythonPlugin:Variables,
    ,                        !- Name
    ;                        !- Variable Name 1


!-   ===========  ALL OBJECTS IN CLASS: PYTHONPLUGIN:TRENDVARIABLE ===========

PythonPlugin:TrendVariable,
    ,                        !- Name
    ,                        !- Name of a Python Plugin Variable
    ;                        !- Number of Timesteps to be Logged


!-   ===========  ALL OBJECTS IN CLASS: PYTHONPLUGIN:OUTPUTVARIABLE ===========

PythonPlugin:OutputVariable,
    ,                        !- Name
    ,                        !- Python Plugin Variable Name
    ,                        !- Type of Data in Variable
    ;                        !- Update Frequency

